TITL CrystalPilot n0002 in P -1
REM CrystalPilot node n0002 tool=import
CELL 0.71073 10.15540 12.70750 20.80080 107.6910 100.3150 96.2330
ZERR 2 0.00170 0.00210 0.00440 0.0030 0.0030 0.0020
LATT 1
SFAC C N P Ni La
UNIT 88.0 16.0 4.0 2.0 2.0

WGHT 0.100000 0.000000
FVAR 1.00000
LA01  5   0.429160   0.291510   0.269840    11.00000     0.04074
NI02  4   0.466930   0.070340   0.207520    11.00000     0.04343
P003  3   0.260760   0.052280   0.145750    11.00000     0.04574
P004  3   0.511370   0.071570   0.314870    11.00000     0.04746
N005  2   0.252880   0.280570   0.170100    11.00000     0.04471
N006  2   0.381530   0.245780   0.374660    11.00000     0.05126
N007  2   0.629720   0.297440   0.218430    11.00000     0.05201
C008  1   0.295890   0.493950   0.269870    11.00000     0.04683
N009  2   0.116480   0.349280   0.083650    11.00000     0.06674
N00A  2   0.246000   0.447370   0.315430    11.00000     0.06059
N00B  2   0.328860   0.457170   0.379650    11.00000     0.05924
C00C  1   0.194160   0.363150   0.148920    11.00000     0.04884
C00D  1   0.571960  -0.144000   0.141980    11.00000     0.05821
N00E  2   0.210760   0.471020   0.199170    11.00000     0.05528
C00F  1   0.591850   0.187820   0.192790    11.00000     0.05548
C00G  1   0.431320   0.552510   0.289650    11.00000     0.05304
C00H  1   0.275790   0.401700   0.425830    11.00000     0.05278
C00I  1   0.220850   0.173410   0.116180    11.00000     0.05528
C00J  1   0.154380   0.559630   0.184790    11.00000     0.06359
N00K  2   0.530380  -0.062220   0.165580    11.00000     0.06934
C00L  1   0.194210   0.451510   0.469930    11.00000     0.06624
C00M  1   0.461630   0.513100   0.396880    11.00000     0.06209
C00N  1   0.732750   0.357640   0.198290    11.00000     0.06231
C00O  1   0.059550   0.435730   0.067910    11.00000     0.06748
C00P  1   0.309030   0.295150   0.422280    11.00000     0.05247
C00Q  1   0.176130   0.298750   0.512620    11.00000     0.07989
C00R  1   0.690730   0.134410   0.364610    11.00000     0.06210
C00S  1   0.105950   0.015890   0.174700    11.00000     0.06963
C00T  1   0.514400   0.562230   0.352990    11.00000     0.06091
C00U  1   0.715390   0.264740   0.385090    11.00000     0.07377
C00V  1   0.416610   0.139820   0.381320    11.00000     0.05563
C00W  1   0.075030   0.539610   0.115000    11.00000     0.06841
C00X  1   0.255930   0.245080   0.467980    11.00000     0.06256
C00Y  1   0.222680  -0.057130   0.055760    11.00000     0.06877
C00Z  1   0.144920   0.397210   0.514440    11.00000     0.07625
C010  1   0.497350  -0.073060   0.321670    11.00000     0.07376
C011  1   0.332290  -0.043200   0.019410    11.00000     0.07928
C012  1   0.354360  -0.145310   0.281510    11.00000     0.08848
C013  1   0.604680  -0.254100   0.113930    11.00000     0.07049
C014  1   1.077200   0.710210   0.366840    11.00000     0.10653
C015  1   0.795310   0.091830   0.322440    11.00000     0.08559
C016  1   0.202360  -0.176210   0.061870    11.00000     0.08430
C017  1   0.856280   0.301740   0.185960    11.00000     0.12079
C018  1   0.106970   0.102400   0.243830    11.00000     0.09998
C019  1  -0.035200   0.000320   0.122900    11.00000     0.11089
C01A  1   1.053790   0.936710   0.407470    11.00000     0.11933
C01B  1   0.542000  -0.083570   0.394260    11.00000     0.09640
C01C  1   0.777640   0.476620   0.248360    11.00000     0.11911
C01D  1   0.640440  -0.255960   0.047410    11.00000     0.12066
C01E  1   0.669150   0.373340   0.125080    11.00000     0.11625
C01F  1   1.145400   0.906100   0.448130    11.00000     0.12889
C01G  1   1.001890   0.746100   0.327280    11.00000     0.12104
C01H  1   0.486670  -0.347650   0.099760    11.00000     0.12047
C01I  1   0.979900   0.854780   0.347020    11.00000     0.15048
C01J  1   1.174630   0.786690   0.424110    11.00000     0.15439
C01K  1   0.730830  -0.257520   0.167810    11.00000     0.11501
HKLF 4
END
