TITL CrystalPilot n0004 in I 41/a m d :2
REM CrystalPilot node n0004 tool=add_atoms_from_difference_map
REM R1 = 0.1902 wR2 = 0.5203 GooF = 4.159
CELL 1.54178 15.85170 15.85170 57.50380 90.0000 90.0000 90.0000
ZERR 4 0 0 0 0 0 0
LATT 2
SYMM -Y+1/4,X+3/4,Z+1/4
SYMM Y+1/4,-X+1/4,Z+3/4
SYMM X,-Y,-Z
SYMM -X,Y+1/2,-Z
SYMM -X,-Y+1/2,Z
SYMM Y+1/4,X+3/4,-Z+1/4
SYMM -Y+1/4,-X+1/4,-Z+3/4
SFAC C O Zr
UNIT 208.0 128.0 24.0

WGHT 0.100000 0.000000
FVAR 0.11601
FE01  3   0.000000   0.250000   0.331566    10.25000     0.05141     0.02733 =
      0.03281     0.00000    -0.00000    -0.00000
ZR02  3   0.110255   0.360255   0.375000    10.50000     0.05875     0.05875 =
      0.03921    -0.00320     0.00320    -0.02863
O004  2   0.128680   0.250000   0.350450    10.50000     0.05173
O005  2   0.088787   0.334875   0.437206    11.00000     0.07021
O006  2   0.160579   0.404777   0.408387    11.00000     0.08829
O007  2   0.074281   0.500596   0.373812    11.00000     0.10458
C008  1   0.217169   0.387002   0.468889    11.00000     0.07102
C009  1   0.215398   0.414823   0.445149    11.00000     0.07203
C00A  1   0.148809   0.383752   0.428958    11.00000     0.06645
C00B  1   0.500000   0.472604   0.477570    10.50000     0.08745
C00D  1   0.344356   0.467554   0.474233    11.00000     0.07649
C00E  1   0.423988   0.488948   0.488279    11.00000     0.06683
C00F  1   0.274192   0.476455   0.437369    11.00000     0.08288
O5X   2   0.000000   0.156100   0.356400    10.50000     0.06000
HKLF 4
END
