TITL CrystalPilot n0018 in P 21 21 21
REM CrystalPilot node n0018 tool=edit_atoms
REM R1 = 0.043 wR2 = 0.1342 GooF = 0.925
CELL 0.68890 5.42807 8.12883 12.05269 90.0000 90.0000 90.0000
ZERR 4 0.00000 0.00000 0.00000 0.0000 0.0000 0.0000
LATT -1
SYMM X+1/2,-Y+1/2,-Z
SYMM -X,Y+1/2,-Z+1/2
SYMM -X+1/2,-Y,Z+1/2
SFAC C H N O S
UNIT 12.0 28.0 4.0 8.0 4.0

WGHT 0.100000 0.000000
FVAR 1.16081
C1    5   0.118731   0.413538   0.524123    11.00000     0.02988     0.01849 =
      0.01656     0.00344    -0.00002    -0.00386
C2    4   0.207498   0.216486   0.118790    11.00000     0.01079     0.02139 =
      0.02081     0.00607    -0.00012    -0.00255
C3    4   0.230828   0.008977   0.240038    11.00000     0.01676     0.02659 =
      0.02896     0.01313    -0.00305     0.00098
C4    3   0.215270   0.266436   0.874461    11.00000     0.00871     0.01698 =
      0.01745    -0.00113    -0.00083     0.00089
C5    1   0.166512   0.586807   0.323566    11.00000     0.01106     0.01709 =
      0.01321     0.00030     0.00100     0.00282
C6    1   0.242725   0.430016   0.384198    11.00000     0.01739     0.01647 =
      0.01998     0.00167    -0.00051     0.00383
C7    1   0.114939   0.105368   0.179043    11.00000     0.01124     0.01697 =
      0.01501     0.00171    -0.00071    -0.00077
H1X   2   0.255951   0.255425   0.945607    11.00000     0.02160
H2X   2   0.053491   0.283444   0.870886    11.00000     0.02160
H3X   2   0.417117   0.422436   0.401015    11.00000     0.02150
H4X   2   0.206327   0.337231   0.336327    11.00000     0.02150
H5X   2   0.223865   0.577183   0.246746    11.00000     0.01660
H6X   2   0.224563   0.513928   0.579410    11.00000     0.03240
H7X   2   0.261797   0.177287   0.837067    11.00000     0.02160
HKLF 4
END
