TITL CrystalPilot n0011 in I 41/a m d :2
REM CrystalPilot node n0011 tool=refine
REM R1 = 0.0618 wR2 = 0.1951 GooF = 1.415
CELL 1.54178 15.85170 15.85170 57.50380 90.0000 90.0000 90.0000
ZERR 4 0 0 0 0 0 0
LATT 2
SYMM -Y+1/4,X+3/4,Z+1/4
SYMM Y+1/4,-X+1/4,Z+3/4
SYMM X,-Y,-Z
SYMM -X,Y+1/2,-Z
SYMM -X,-Y+1/2,Z
SYMM Y+1/4,X+3/4,-Z+1/4
SYMM -Y+1/4,-X+1/4,-Z+3/4
SFAC C H O Zr
UNIT 272.0 144.0 128.0 24.0

WGHT 0.100000 0.000000
FVAR 0.12856
FE01  4   0.000000   0.250000   0.331561    10.25000     0.05441     0.03144 =
      0.03582     0.00000    -0.00000    -0.00000
ZR02  4   0.110254   0.360254   0.375000    10.50000     0.06231     0.06231 =
      0.04251    -0.00301     0.00301    -0.02901
O004  3   0.126253   0.250000   0.350578    10.50000     0.04757     0.07436 =
      0.05057     0.00000     0.01200    -0.00000
O005  3   0.089339   0.335454   0.437100    11.00000     0.06077     0.10303 =
      0.06832    -0.02177    -0.01674    -0.01427
O006  3   0.161158   0.404811   0.408057    11.00000     0.10357     0.14709 =
      0.05990    -0.01082    -0.01230    -0.06152
O007  3   0.075009   0.500979   0.374441    11.00000     0.35002     0.07046 =
      0.06807    -0.00902     0.03668    -0.09848
C008  1   0.217796   0.386918   0.468471    11.00000     0.05800     0.12029 =
      0.06656    -0.02364    -0.00609    -0.00580
AFIX 43
H008  2   0.176903   0.350094   0.474078    11.00000    -1.20000
AFIX 0
C009  1   0.213989   0.415097   0.446041    11.00000     0.06231     0.10638 =
      0.06992    -0.02719    -0.00320    -0.01313
C00A  1   0.148585   0.383986   0.429125    11.00000     0.06466     0.10389 =
      0.06383    -0.01566    -0.00554    -0.01693
C00B  1   0.500000   0.472560   0.477666    10.50000     0.05030     0.14122 =
      0.08246    -0.05131    -0.00000    -0.00000
AFIX 43
H00B  2   0.500000   0.452012   0.462517    10.50000    -1.20000
AFIX 0
C00D  1   0.344961   0.468610   0.474610    11.00000     0.05097     0.12880 =
      0.07554    -0.04578    -0.00531    -0.00180
C00E  1   0.422249   0.487378   0.488591    11.00000     0.05220     0.13006 =
      0.07207    -0.04432     0.00027    -0.00820
C00F  1   0.272701   0.473243   0.437636    11.00000     0.07913     0.13732 =
      0.08025    -0.01213    -0.00955    -0.04100
AFIX 43
H00F  2   0.267808   0.495124   0.422691    11.00000    -1.20000
AFIX 0
O5X   3   0.000000   0.156518   0.356668    10.50000     0.06048     0.03190 =
      0.04084     0.00299    -0.00000    -0.00000
C8X   1   0.163339   0.032662   0.732806    11.00000     0.13465     0.06161 =
      0.07164    -0.00388    -0.03015     0.00084
AFIX 43
H8X   2   0.144194   0.034984   0.748080    11.00000    -1.20000
AFIX 0
C9X   1   0.161394   0.002266   0.047928    11.00000     0.07401     0.13314 =
      0.08495    -0.01216    -0.01070    -0.02835
AFIX 43
H9X   2   0.120642  -0.034601   0.053592    11.00000    -1.20000
AFIX 0
HKLF 4
END
