TITL CrystalPilot n0015 in P 21 21 21
REM CrystalPilot node n0015 tool=refine
REM R1 = 0.0429 wR2 = 0.1319 GooF = 0.915
CELL 0.68890 5.42807 8.12883 12.05269 90.0000 90.0000 90.0000
ZERR 4 0.00000 0.00000 0.00000 0.0000 0.0000 0.0000
LATT -1
SYMM X+1/2,-Y+1/2,-Z
SYMM -X,Y+1/2,-Z+1/2
SYMM -X+1/2,-Y,Z+1/2
SFAC C H N O S
UNIT 12.0 28.0 4.0 8.0 4.0

DFIX 0.8900 0.020 C4 H1X
DFIX 0.8900 0.020 C4 H2X
DFIX 0.8900 0.020 C4 H7X
DFIX 0.9700 0.020 C6 H3X
DFIX 0.9700 0.020 C6 H4X
DFIX 0.9800 0.020 C5 H5X
DFIX 1.2000 0.030 C1 H6X

WGHT 0.100000 0.000000
FVAR 1.15939
C1    5   0.118678   0.413616   0.524114    11.00000     0.02982     0.01838 =
      0.01661     0.00345     0.00001    -0.00376
C2    4   0.207536   0.216391   0.118699    11.00000     0.01066     0.02171 =
      0.02063     0.00629    -0.00001    -0.00251
C3    4   0.230837   0.009087   0.240116    11.00000     0.01679     0.02648 =
      0.02887     0.01327    -0.00312     0.00099
C4    3   0.215424   0.266580   0.874487    11.00000     0.00883     0.01688 =
      0.01742    -0.00170    -0.00112     0.00068
C5    1   0.166609   0.586864   0.323501    11.00000     0.01103     0.01708 =
      0.01312     0.00023     0.00099     0.00264
C6    1   0.242564   0.429961   0.384168    11.00000     0.01712     0.01686 =
      0.01962     0.00211    -0.00026     0.00380
C7    1   0.114865   0.105421   0.179083    11.00000     0.01125     0.01701 =
      0.01492     0.00146    -0.00070    -0.00061
H1X   2   0.255848   0.251280   0.948782    11.00000     0.00896     0.01574 =
      0.01153    -0.00806     0.01466    -0.00913
H2X   2   0.063689   0.278819   0.874848    11.00000     0.01958     0.03012 =
      0.04538    -0.04661    -0.00320     0.01036
H3X   2   0.429876   0.417833   0.403455    11.00000     0.07666     0.03965 =
      0.02165     0.00608     0.04337    -0.01671
H4X   2   0.205265   0.347647   0.340131    11.00000     0.04475     0.02300 =
     -0.01894    -0.00914     0.00575    -0.00016
H5X   2   0.223070   0.571571   0.244516    11.00000     0.01638     0.01303 =
      0.04868     0.01529     0.00524     0.01804
H6X   2   0.226972   0.503762   0.565730    11.00000     0.42649     0.83890 =
      0.39758    -0.60150     0.29723    -0.24367
H7X   2   0.255639   0.194594   0.843829    11.00000     0.21404     0.09055 =
     -0.00540     0.04328    -0.03693    -0.14747
HKLF 4
END
