TITL CrystalPilot n0023 in C 2 2 21
REM CrystalPilot node n0023 tool=refine
REM R1 = 0.0546 wR2 = 0.17 GooF = 1.513
CELL 0.68914 15.79000 32.31000 11.86000 90.0000 90.0000 90.0000
ZERR 8 0 0 0 0 0 0
LATT -7
SYMM X,-Y,-Z
SYMM -X,Y,-Z+1/2
SYMM -X,-Y,Z+1/2
SFAC C O Cu
UNIT 218.4 32.0 8.0

WGHT 0.100000 0.000000
FVAR 0.28054
CU1   3   0.069032   0.019831   0.363620    11.00000     0.03970     0.02064 =
      0.08304     0.00082    -0.01852    -0.00174
C1    1   0.071555   0.294450   0.210782    11.00000     0.03292     0.01761 =
      0.04904    -0.00433     0.01068    -0.00151
C2    1   0.000000   0.272138   0.250000    10.50000     0.03291     0.01501 =
      0.04975     0.00000     0.00565    -0.00000
C3    1   0.000000   0.405778   0.250000    10.50000     0.08392     0.00943 =
      0.04783     0.00000     0.00431    -0.00000
O1    2   0.159182   0.046581   0.449409    11.00000     0.04894     0.04739 =
      0.07771     0.00317    -0.02299    -0.02151
C4    1   0.000000   0.360033   0.250000    10.50000     0.04710     0.01638 =
      0.04779     0.00000     0.00895    -0.00000
C5    1   0.071809   0.337783   0.211337    11.00000     0.03854     0.02254 =
      0.04507    -0.00279     0.00626    -0.00471
O2    2   0.031660   0.076335   0.335844    11.00000     0.08467     0.02109 =
      0.09231     0.00200    -0.02932     0.00440
C6    1   0.000000   0.140500   0.250000    10.50000     0.05734     0.01630 =
      0.05931     0.00000    -0.01219    -0.00000
O3    2   0.000000  -0.002088   0.250000    10.50000     0.10230     0.02349 =
      0.15738     0.00000    -0.08036    -0.00000
C7    1   0.217751   0.218408   0.063314    11.00000     0.12049     0.11150 =
      0.04233     0.00195     0.01441     0.08206
O4    2   0.122973   0.033748   0.628724    11.00000     0.05587     0.03661 =
      0.09169    -0.01242     0.03021    -0.02219
C8    1   0.148321   0.271208   0.175492    11.00000     0.04363     0.03004 =
      0.04841    -0.00652     0.01577     0.00113
C9    1   0.000000   0.226627   0.250000    10.50000     0.04004     0.01790 =
      0.05085     0.00000     0.00335    -0.00000
C10   1   0.229540   0.083090   0.592371    11.00000     0.04050     0.03301 =
      0.05726    -0.00104     0.00087    -0.01171
C11   1   0.145003   0.362560   0.168630    11.00000     0.04523     0.03582 =
      0.04912    -0.00173     0.00226    -0.01939
C12   1   0.168641   0.362093   0.055141    11.00000     0.04030     0.04451 =
      0.04864    -0.00176     0.00665    -0.01500
C13   1   0.121913   0.333440   0.724408    11.00000     0.14058     0.14921 =
      0.05961    -0.01329    -0.00783     0.10126
C14   1   0.146257   0.242967   0.085511    11.00000     0.09409     0.04834 =
      0.04223    -0.00389     0.01500     0.02879
C15   1   0.206653   0.249802   0.718877    11.00000     0.05637     0.10301 =
      0.06809    -0.01306    -0.01265     0.03271
C16   1   0.229912   0.389912   0.017176    11.00000     0.04556     0.03294 =
      0.05821    -0.00280     0.01347    -0.01099
C17   1   0.054275   0.161759   0.321619    11.00000     0.06060     0.02524 =
      0.06932    -0.00259    -0.02117     0.00228
C18   1   0.055147   0.204479   0.319350    11.00000     0.04524     0.02339 =
      0.06265    -0.00084    -0.01340     0.00265
C19   1   0.222222   0.274435   0.236958    11.00000     0.03572     0.07462 =
      0.07536    -0.00788     0.00683     0.01292
C20   1   0.003024   0.427546   0.150395    11.00000     0.16190     0.02123 =
      0.04342     0.00226     0.01501    -0.00054
O5    2   0.030509   0.000000   0.000000    10.50000     0.03791     0.12847 =
      0.15277    -0.03391    -0.00000    -0.00000
C21   1   0.210458   0.278925   0.629826    11.00000     0.10155     0.12916 =
      0.05212    -0.00840    -0.02236     0.08368
C22   1   0.188182   0.388211   0.244255    11.00000     0.08027     0.04982 =
      0.04773    -0.00384    -0.00773    -0.03102
C23   1   0.000000   0.492115   0.250000    10.50000     0.64302     0.02047 =
      0.05180     0.00000     0.07703    -0.00000
C24   1   0.000000   0.092577   0.250000    10.50000     0.06243     0.02440 =
      0.07234     0.00000    -0.01967    -0.00000
C25   1   0.251125   0.084285   0.707592    11.00000     0.06578     0.04743 =
      0.05631     0.00166     0.00518    -0.02999
C26   1   0.005342   0.470157   0.149878    11.00000     0.39595     0.02316 =
      0.04844     0.00563     0.04115     0.00672
C27   1   0.108754   0.317304   0.513411    11.00000     0.09757     0.13608 =
      0.18672     0.01045    -0.02325     0.05044
C29X  1   0.164768   0.052574   0.553743    11.00000     0.03936     0.02537 =
      0.07579    -0.00062     0.00684    -0.00807
C30X  1   0.129206   0.306026   0.616439    11.00000     0.13972     0.19759 =
      0.04929    -0.03560    -0.03356     0.13149
C32X  1   0.051446   0.282048   0.597139    11.00000     0.11547     0.30707 =
      0.13438    -0.13900    -0.08595     0.14637
C34X  1   0.174621   0.351612   0.525637    10.80000     0.20851     0.18865 =
      0.07278     0.05625     0.04027     0.16145
HKLF 4
END
