TITL CrystalPilot n0024 in P -1
REM CrystalPilot node n0024 tool=add_hydrogens
CELL 0.71073 10.15540 12.70750 20.80080 107.6910 100.3150 96.2330
ZERR 2 0.00170 0.00210 0.00440 0.0030 0.0030 0.0020
LATT 1
SFAC C H N P Ni La
UNIT 88.0 110.0 16.0 4.0 2.0 2.0

WGHT 0.100000 0.000000
FVAR 0.18965
LA1   6   0.429119   0.291505   0.269798    11.00000     0.04326     0.03279 =
      0.04268     0.00561     0.00750     0.00938
NI1   5   0.466812   0.070215   0.207459    11.00000     0.04983     0.03168 =
      0.04650     0.00529     0.01059     0.01086
P1    4   0.260708   0.052211   0.145629    11.00000     0.05194     0.03284 =
      0.04745     0.00312     0.00551     0.00676
P2    4   0.511703   0.071569   0.314932    11.00000     0.06042     0.03520 =
      0.04930     0.00937     0.00931     0.01440
N1    3   0.252111   0.280781   0.170063    11.00000     0.05469     0.03357 =
      0.04764     0.00931     0.00368     0.01116
N2    3   0.382496   0.246270   0.375150    11.00000     0.06611     0.04022 =
      0.04951     0.00892     0.01731     0.01624
N3    3   0.628108   0.297235   0.217579    11.00000     0.04516     0.04249 =
      0.05773     0.00906     0.00843     0.00359
C1    1   0.295454   0.494293   0.270007    11.00000     0.06108     0.03414 =
      0.05127     0.00823     0.00302     0.01273
N4    3   0.116627   0.349174   0.082862    11.00000     0.08987     0.05956 =
      0.05360     0.01462     0.00264     0.01046
N5    3   0.245570   0.448559   0.315777    11.00000     0.06199     0.05762 =
      0.05680     0.00986     0.00590     0.01564
N6    3   0.328722   0.457319   0.379951    11.00000     0.07226     0.04548 =
      0.05142     0.00232     0.00672     0.01910
C2    1   0.194066   0.363149   0.149761    11.00000     0.05347     0.03820 =
      0.04835     0.01436     0.00900     0.01182
C3    1   0.571229  -0.143339   0.142532    11.00000     0.08712     0.03419 =
      0.06089     0.00620     0.02178     0.02935
N7    3   0.211919   0.472396   0.199018    11.00000     0.05797     0.04709 =
      0.05859     0.01134     0.00522     0.00515
C4    1   0.592960   0.187257   0.192385    11.00000     0.05185     0.04682 =
      0.05661     0.00924     0.01498     0.01059
C5    1   0.430989   0.551655   0.288392    11.00000     0.06436     0.03800 =
      0.06387     0.01339     0.00421     0.00464
C6    1   0.274700   0.402195   0.425490    11.00000     0.06160     0.05123 =
      0.04071     0.00308     0.00552     0.01854
C7    1   0.219971   0.171491   0.115389    11.00000     0.07385     0.04112 =
      0.05085     0.00402    -0.00545     0.01518
C8    1   0.152931   0.559286   0.183973    11.00000     0.08305     0.04189 =
      0.06290     0.01608     0.00601     0.01429
AFIX 43
H8    2   0.164377   0.628890   0.218021    11.00000    -1.20000
AFIX 0
N8    3   0.531059  -0.061446   0.165324    11.00000     0.07568     0.06115 =
      0.06100     0.01636     0.01286     0.01396
C9    1   0.194088   0.452337   0.469708    11.00000     0.07927     0.07208 =
      0.05029     0.00671     0.01866     0.03295
AFIX 43
H9    2   0.172846   0.522056   0.470580    11.00000    -1.20000
AFIX 0
C10   1   0.462454   0.514307   0.397113    11.00000     0.06637     0.04321 =
      0.05440     0.00373    -0.00122     0.00994
C11   1   0.733473   0.359277   0.197394    11.00000     0.05701     0.05003 =
      0.08283     0.01344     0.02904     0.00243
C12   1   0.059655   0.435637   0.067937    11.00000     0.09633     0.06051 =
      0.05006     0.02278    -0.00503     0.00747
AFIX 43
H12   2   0.008756   0.422440   0.023520    11.00000    -1.20000
AFIX 0
C13   1   0.308978   0.294833   0.421642    11.00000     0.06317     0.04613 =
      0.04395     0.00652     0.01296     0.00968
C14   1   0.175469   0.298024   0.512006    11.00000     0.08678     0.07945 =
      0.05976     0.00905     0.02305     0.00553
AFIX 43
H14   2   0.142806   0.262725   0.540582    11.00000    -1.20000
AFIX 0
C15   1   0.690450   0.134569   0.364512    11.00000     0.06472     0.06038 =
      0.06054     0.01876    -0.00006     0.01249
C16   1   0.105824   0.015317   0.175689    11.00000     0.04579     0.08200 =
      0.08957     0.02621     0.01199    -0.00150
C17   1   0.513779   0.561269   0.352927    11.00000     0.06184     0.04672 =
      0.06461     0.00799     0.00030    -0.00538
C18   1   0.715254   0.263797   0.385898    11.00000     0.06398     0.06908 =
      0.08049     0.01711    -0.00288     0.00585
AFIX 137
H18A  2   0.807534   0.293146   0.411112    11.00000    -1.50000
H18B  2   0.654618   0.293036   0.414656    11.00000    -1.50000
H18C  2   0.699032   0.285555   0.345222    11.00000    -1.50000
AFIX 0
C19   1   0.416782   0.139118   0.380908    11.00000     0.07476     0.04508 =
      0.05120     0.01563     0.01632     0.01786
C20   1   0.075620   0.540060   0.116334    11.00000     0.11089     0.05148 =
      0.06128     0.02245     0.00003     0.03054
AFIX 43
H20   2   0.036643   0.596860   0.105023    11.00000    -1.20000
AFIX 0
C21   1   0.257183   0.244259   0.468133    11.00000     0.08441     0.06312 =
      0.05264     0.01957     0.02514     0.01582
AFIX 43
H21   2   0.278129   0.175218   0.469082    11.00000    -1.20000
AFIX 0
C22   1   0.222019  -0.055932   0.056520    11.00000     0.08737     0.04951 =
      0.05761    -0.00296    -0.00863     0.01521
C23   1   0.143769   0.398393   0.513571    11.00000     0.07454     0.09027 =
      0.06490     0.01396     0.03117     0.03013
AFIX 43
H23   2   0.089876   0.432250   0.542770    11.00000    -1.20000
AFIX 0
C24   1   0.497007  -0.073125   0.321490    11.00000     0.10433     0.04343 =
      0.07951     0.02385     0.01122     0.01900
C25   1   0.334066  -0.041239   0.019115    11.00000     0.10438     0.07557 =
      0.06054     0.00710     0.02111     0.02336
AFIX 137
H25A  2   0.312252  -0.097089  -0.026055    11.00000    -1.50000
H25B  2   0.418333  -0.049378   0.045036    11.00000    -1.50000
H25C  2   0.342629   0.032062   0.014657    11.00000    -1.50000
AFIX 0
C26   1   0.354459  -0.144735   0.281869    11.00000     0.11273     0.05131 =
      0.09683     0.02279     0.01431    -0.00962
AFIX 137
H26A  2   0.349861  -0.218126   0.286100    11.00000    -1.50000
H26B  2   0.340497  -0.151134   0.233855    11.00000    -1.50000
H26C  2   0.285301  -0.109011   0.301271    11.00000    -1.50000
AFIX 0
C27   1   0.604973  -0.253559   0.114186    11.00000     0.09889     0.04471 =
      0.08343     0.01240     0.03018     0.03787
C28   1   1.078792   0.711200   0.366705    11.00000     0.11518     0.07799 =
      0.12926     0.02350     0.03447     0.02820
AFIX 43
H28   2   1.072002   0.634334   0.357975    11.00000    -1.20000
AFIX 0
C29   1   0.794478   0.091457   0.323777    11.00000     0.07008     0.12284 =
      0.12169     0.04048     0.00732     0.04343
AFIX 137
H29A  2   0.884254   0.125826   0.351058    11.00000    -1.50000
H29B  2   0.780464   0.109699   0.281812    11.00000    -1.50000
H29C  2   0.784591   0.011545   0.312666    11.00000    -1.50000
AFIX 0
C30   1   0.200763  -0.175500   0.062516    11.00000     0.10378     0.04526 =
      0.11151    -0.01195    -0.00740     0.00848
AFIX 137
H30A  2   0.181056  -0.230586   0.017130    11.00000    -1.50000
H30B  2   0.126245  -0.183733   0.084231    11.00000    -1.50000
H30C  2   0.281882  -0.185901   0.089884    11.00000    -1.50000
AFIX 0
C31   1   0.856420   0.302351   0.186257    11.00000     0.07674     0.12591 =
      0.24595     0.07185     0.08869     0.03871
AFIX 137
H31A  2   0.920414   0.348726   0.173163    11.00000    -1.50000
H31B  2   0.827411   0.230939   0.150221    11.00000    -1.50000
H31C  2   0.898696   0.291615   0.228389    11.00000    -1.50000
AFIX 0
C32   1   0.106081   0.101733   0.244938    11.00000     0.08253     0.11505 =
      0.08818     0.02103     0.02674     0.02142
AFIX 137
H32A  2   0.025782   0.081993   0.260031    11.00000    -1.50000
H32B  2   0.107528   0.174419   0.239850    11.00000    -1.50000
H32C  2   0.185095   0.103282   0.278603    11.00000    -1.50000
AFIX 0
C33   1  -0.036360  -0.000840   0.123529    11.00000     0.05020     0.17372 =
      0.11901     0.01800     0.00755    -0.00981
AFIX 137
H33A  2  -0.108967  -0.019585   0.144148    11.00000    -1.50000
H33B  2  -0.040397  -0.060200   0.081238    11.00000    -1.50000
H33C  2  -0.045303   0.067539   0.113803    11.00000    -1.50000
AFIX 0
C34   1   1.054278   0.936625   0.407204    11.00000     0.19653     0.08161 =
      0.13873    -0.00179    -0.02285     0.03765
AFIX 43
H34   2   1.040268   1.010548   0.418349    11.00000    -1.20000
AFIX 0
C35   1   0.541435  -0.081992   0.395456    11.00000     0.15849     0.08263 =
      0.10054     0.05415     0.00981     0.01705
AFIX 137
H35A  2   0.529495  -0.159495   0.392366    11.00000    -1.50000
H35B  2   0.486726  -0.043486   0.424884    11.00000    -1.50000
H35C  2   0.635326  -0.048433   0.414472    11.00000    -1.50000
AFIX 0
C36   1   0.776647   0.476936   0.249303    11.00000     0.17181     0.07911 =
      0.20435    -0.03876     0.11580    -0.05397
AFIX 137
H36A  2   0.846079   0.517668   0.235903    11.00000    -1.50000
H36B  2   0.811448   0.472935   0.294400    11.00000    -1.50000
H36C  2   0.699740   0.514675   0.250461    11.00000    -1.50000
AFIX 0
C37   1   0.640178  -0.254941   0.046618    11.00000     0.17962     0.13500 =
      0.10007    -0.01032     0.04515     0.06370
AFIX 137
H37A  2   0.663894  -0.326156   0.024605    11.00000    -1.50000
H37B  2   0.715782  -0.196328   0.055260    11.00000    -1.50000
H37C  2   0.563291  -0.243220   0.016934    11.00000    -1.50000
AFIX 0
C38   1   0.669315   0.372133   0.126142    11.00000     0.13664     0.12547 =
      0.14280     0.07521     0.04279     0.00341
AFIX 137
H38A  2   0.736921   0.412866   0.111664    11.00000    -1.50000
H38B  2   0.594859   0.412187   0.131260    11.00000    -1.50000
H38C  2   0.636993   0.299195   0.091998    11.00000    -1.50000
AFIX 0
C39   1   1.145071   0.905565   0.448032    11.00000     0.17168     0.15037 =
      0.08623     0.00747    -0.01888     0.00423
AFIX 43
H39   2   1.190916   0.956182   0.490962    11.00000    -1.20000
AFIX 0
C40   1   1.002748   0.747306   0.326870    11.00000     0.12953     0.08652 =
      0.14814     0.01083    -0.01167     0.01033
AFIX 43
H40   2   0.960582   0.699442   0.282535    11.00000    -1.20000
AFIX 0
C41   1   0.485534  -0.347217   0.101504    11.00000     0.13639     0.05553 =
      0.27976     0.04130     0.07936     0.02953
AFIX 137
H41A  2   0.511773  -0.418659   0.082794    11.00000    -1.50000
H41B  2   0.409827  -0.339450   0.069309    11.00000    -1.50000
H41C  2   0.460020  -0.342339   0.144447    11.00000    -1.50000
AFIX 0
C42   1   0.980591   0.854992   0.347107    11.00000     0.16035     0.12732 =
      0.13219     0.01832    -0.01079     0.02993
AFIX 43
H42   2   0.912335   0.874628   0.319034    11.00000    -1.20000
AFIX 0
C43   1   1.175033   0.786699   0.424948    11.00000     0.14618     0.25112 =
      0.19520     0.16486     0.03362     0.05829
AFIX 43
H43   2   1.250202   0.765376   0.447194    11.00000    -1.20000
AFIX 0
C44   1   0.731288  -0.258255   0.167958    11.00000     0.16759     0.10035 =
      0.14435     0.04392     0.00541     0.07176
AFIX 137
H44A  2   0.759140  -0.329781   0.152185    11.00000    -1.50000
H44B  2   0.707861  -0.248069   0.211904    11.00000    -1.50000
H44C  2   0.804438  -0.199799   0.172809    11.00000    -1.50000
AFIX 0
HKLF 4
END
