TITL CrystalPilot n0002 in P 21 21 21
REM CrystalPilot node n0002 tool=refine
REM R1 = 0.117 wR2 = 0.3585 GooF = 2.55
CELL 0.68890 5.42807 8.12883 12.05269 90.0000 90.0000 90.0000
ZERR 4 0.00000 0.00000 0.00000 0.0000 0.0000 0.0000
LATT -1
SYMM X+1/2,-Y+1/2,-Z
SYMM -X,Y+1/2,-Z+1/2
SYMM -X+1/2,-Y,Z+1/2
SFAC C S
UNIT 24.0 4.0

WGHT 0.100000 0.000000
FVAR 1.20610
C1    2   0.118772   0.413413   0.524409    11.00000     0.02362
C2    1   0.206693   0.217588   0.119143    11.00000     0.01076
C3    1   0.231493   0.009001   0.239537    11.00000     0.01552
C4    1   0.213619   0.265473   0.874032    11.00000     0.01218
C5    1   0.165597   0.585297   0.323840    11.00000     0.01570
C6    1   0.243093   0.430917   0.383580    11.00000     0.01946
C7    1   0.115574   0.105224   0.178454    11.00000     0.01562
HKLF 4
END
