TITL CrystalPilot n0001 in P -1
REM CrystalPilot node n0001 tool=add_hydrogens
CELL 1.54178 6.98020 9.35700 12.57790 102.8330 94.2960 107.5670
ZERR 2 0.00000 0.00000 0.00000 0.0000 0.0000 0.0000
LATT 1
SFAC C H N O
UNIT 32.0 18.0 4.0 10.0

WGHT 0.100000 0.000000
FVAR 1.00000
O1    4  -0.186670   0.042730   0.012890    11.00000     0.09580     0.08340 =
      0.08770    -0.02120    -0.01320     0.01300
O2    4   0.024890   0.259400   0.006500    11.00000     0.12910     0.10250 =
      0.06970     0.01270     0.00510     0.01110
O3    4   0.123710   0.202540   0.567420    11.00000     0.18210     0.05050 =
      0.08540     0.02450     0.00530     0.00550
O4    4   0.400860   0.746050   0.557270    11.00000     0.09730     0.05010 =
      0.05050     0.01000     0.00300     0.01200
O5    4   0.527580   0.935540   0.710990    11.00000     0.08210     0.04820 =
      0.05570     0.00790     0.00180     0.00880
N1    3  -0.054770   0.166830   0.056110    11.00000     0.07660     0.07230 =
      0.07140    -0.00880     0.00040     0.02120
N2    3   0.249270   0.458780   0.579970    11.00000     0.07250     0.04540 =
      0.05900     0.01410     0.00460     0.01330
AFIX 43
H2    2   0.273266   0.524108   0.540133    11.00000    -1.20000
AFIX 0
C1    1   0.113700   0.278480   0.400990    11.00000     0.05560     0.04210 =
      0.07170     0.00850     0.00710     0.01310
C2    1   0.010130   0.125900   0.341800    11.00000     0.07230     0.04290 =
      0.08490     0.01030     0.00830     0.01140
AFIX 43
H21   2  -0.023179   0.048269   0.378935    11.00000    -1.20000
AFIX 0
C3    1  -0.043500   0.088540   0.229240    11.00000     0.06990     0.04440 =
      0.08460    -0.00450     0.00190     0.00950
AFIX 43
H3    2  -0.113119  -0.013432   0.190039    11.00000    -1.20000
AFIX 0
C4    1   0.007370   0.204030   0.175950    11.00000     0.05640     0.05680 =
      0.06770    -0.00150     0.00450     0.01780
C5    1   0.113090   0.355870   0.231100    11.00000     0.06900     0.05240 =
      0.06460     0.00750     0.00550     0.01220
AFIX 43
H5    2   0.148830   0.432265   0.193024    11.00000    -1.20000
AFIX 0
C6    1   0.164500   0.391780   0.343750    11.00000     0.06840     0.04150 =
      0.06700     0.00480     0.00390     0.00730
AFIX 43
H6    2   0.234657   0.493989   0.382235    11.00000    -1.20000
AFIX 0
C7    1   0.162190   0.308770   0.523500    11.00000     0.07420     0.04430 =
      0.07400     0.01590     0.00910     0.01280
C8    1   0.306130   0.523560   0.693440    11.00000     0.05700     0.05610 =
      0.06080     0.01900     0.00590     0.01870
C9    1   0.269620   0.435590   0.770400    11.00000     0.08540     0.06680 =
      0.07420     0.03030     0.00470     0.01890
AFIX 43
H9    2   0.206824   0.328708   0.746390    11.00000    -1.20000
AFIX 0
C10   1   0.325580   0.505390   0.881370    11.00000     0.10130     0.09480 =
      0.07300     0.04540     0.00800     0.02770
AFIX 43
H10   2   0.298041   0.445038   0.931535    11.00000    -1.20000
AFIX 0
C11   1   0.421320   0.662430   0.919630    11.00000     0.09590     0.09330 =
      0.05500     0.02360    -0.00040     0.02940
AFIX 43
H11   2   0.460962   0.707904   0.994911    11.00000    -1.20000
AFIX 0
C12   1   0.457860   0.751510   0.845620    11.00000     0.06780     0.06960 =
      0.05580     0.01370     0.00060     0.02100
AFIX 43
H12   2   0.521457   0.858129   0.871408    11.00000    -1.20000
AFIX 0
C13   1   0.401650   0.685490   0.732740    11.00000     0.05170     0.05540 =
      0.05500     0.01370     0.00430     0.01850
C14   1   0.441090   0.788290   0.656840    11.00000     0.05510     0.05010 =
      0.05320     0.00920     0.00380     0.01440
C15A  1   0.589600   1.048200   0.648900    10.64300     0.08400     0.05190 =
      0.06680     0.01820     0.00170     0.01340
C16A  1   0.695400   1.203700   0.726400    10.64300     0.11400     0.05280 =
      0.09120     0.01390     0.00500     0.00400
C15B  1   0.550000   1.050500   0.643700    10.35700     0.08400     0.05190 =
      0.06680     0.01820     0.00170     0.01340
C16B  1   0.618500   1.199800   0.730900    10.35700     0.11400     0.05280 =
      0.09120     0.01390     0.00500     0.00400
HKLF 4
END
