TITL CrystalPilot n0012 in C 2 2 21
REM CrystalPilot node n0012 tool=edit_atoms
CELL 0.68914 15.79000 32.31000 11.86000 90.0000 90.0000 90.0000
ZERR 8 0 0 0 0 0 0
LATT -7
SYMM X,-Y,-Z
SYMM -X,Y,-Z+1/2
SYMM -X,-Y,Z+1/2
SFAC C O Cu
UNIT 220.0 32.0 8.0

WGHT 0.100000 0.000000
FVAR 0.28780
CU1   3   0.069029   0.019819   0.363637    11.00000     0.04026     0.02114 =
      0.08263     0.00093    -0.01824    -0.00172
C1    1   0.071672   0.294346   0.210793    11.00000     0.03286     0.01973 =
      0.05161    -0.00469     0.01010    -0.00320
C2    1   0.000000   0.272054   0.250000    10.50000     0.03351     0.01866 =
      0.04739     0.00000     0.00597     0.00000
C3    1   0.000000   0.405531   0.250000    10.50000     0.09520     0.01016 =
      0.04686     0.00000     0.00111     0.00000
O1    2   0.159199   0.046681   0.449683    11.00000     0.04745     0.04332 =
      0.07729     0.00541    -0.01915    -0.01923
C4    1   0.000000   0.359953   0.250000    10.50000     0.04752     0.01754 =
      0.04400     0.00000     0.00735     0.00000
C5    1   0.071911   0.337648   0.211382    11.00000     0.04033     0.02276 =
      0.04720    -0.00285     0.00635    -0.00552
O2    2   0.031510   0.076443   0.335745    11.00000     0.08184     0.02075 =
      0.09429     0.00062    -0.02546     0.00429
C6    1   0.000000   0.140585   0.250000    10.50000     0.05367     0.01883 =
      0.07021     0.00000    -0.00899     0.00000
O3    2   0.000000  -0.001945   0.250000    10.50000     0.10838     0.02482 =
      0.16632     0.00000    -0.08417     0.00000
C7    1   0.218268   0.218586   0.063260    11.00000     0.11583     0.09991 =
      0.04509     0.00017     0.01478     0.06983
O4    2   0.123079   0.033853   0.628911    11.00000     0.05692     0.03774 =
      0.09679    -0.01387     0.03161    -0.01776
C8    1   0.148201   0.271118   0.175272    11.00000     0.04440     0.03273 =
      0.05263    -0.00596     0.01533     0.00403
C9    1   0.000000   0.226470   0.250000    10.50000     0.04039     0.02048 =
      0.05566     0.00000     0.00100     0.00000
C10   1   0.229398   0.083191   0.592468    11.00000     0.04108     0.03490 =
      0.05978    -0.00134     0.00030    -0.01213
C11   1   0.144762   0.362255   0.169312    11.00000     0.04603     0.03556 =
      0.04886    -0.00174     0.00187    -0.01850
C12   1   0.168450   0.361862   0.055789    11.00000     0.04162     0.04301 =
      0.05187    -0.00897     0.00706    -0.01552
C13   1   0.122235   0.334199   0.724169    11.00000     0.13067     0.13599 =
      0.06464    -0.01132    -0.00881     0.09145
C14   1   0.146201   0.242935   0.085742    11.00000     0.08759     0.04849 =
      0.04673    -0.00334     0.01747     0.02511
C15   1   0.207166   0.250118   0.717381    11.00000     0.05774     0.10058 =
      0.07973    -0.01920    -0.02049     0.03291
C16   1   0.229460   0.390221   0.017147    11.00000     0.04863     0.03611 =
      0.05690    -0.00275     0.00885    -0.01185
C17   1   0.054613   0.161694   0.321183    11.00000     0.05980     0.02583 =
      0.07287    -0.00351    -0.01745     0.00341
C18   1   0.055227   0.204682   0.319149    11.00000     0.04989     0.02596 =
      0.06135    -0.00100    -0.01066     0.00394
C19   1   0.222577   0.274290   0.237206    11.00000     0.03918     0.07406 =
      0.07848    -0.00925     0.00778     0.00726
C20   1   0.003250   0.427687   0.149813    11.00000     0.15949     0.02068 =
      0.04264     0.00327     0.01414     0.00064
O5    2   0.030995   0.000000   0.000000    10.50000     0.04570     0.12470 =
      0.14078    -0.03980     0.00000     0.00000
C21   1   0.210244   0.278693   0.629882    11.00000     0.09811     0.13192 =
      0.05118    -0.00737    -0.01704     0.08030
C22   1   0.188469   0.388186   0.244327    11.00000     0.08217     0.05194 =
      0.04909    -0.00381    -0.00687    -0.02840
C23   1   0.000000   0.491712   0.250000    10.50000     0.76456     0.01318 =
      0.05373     0.00000     0.07201     0.00000
C24   1   0.000000   0.092851   0.250000    10.50000     0.05802     0.03234 =
      0.07649     0.00000    -0.01400     0.00000
C25   1   0.251193   0.084086   0.707638    11.00000     0.06641     0.04799 =
      0.06145     0.00135     0.00606    -0.02580
C26   1   0.005958   0.470215   0.149973    11.00000     0.46793     0.02349 =
      0.04967     0.00492     0.02902     0.00604
C27   1   0.106185   0.315907   0.512434    11.00000     0.09097     0.11970 =
      0.24804     0.02407    -0.04523     0.02358
C29X  1   0.164738   0.052682   0.553161    11.00000     0.03997     0.02499 =
      0.07994    -0.00262     0.00604    -0.00588
C30X  1   0.129155   0.306161   0.617083    11.00000     0.14383     0.20223 =
      0.06112    -0.03464    -0.03805     0.13674
C32X  1   0.049608   0.280120   0.599770    11.00000     0.10816     0.32556 =
      0.13885    -0.14261    -0.08762     0.14387
C34X  1   0.171561   0.350044   0.525250    11.00000     0.36110     0.29300 =
      0.07557     0.06451     0.05547     0.28388
HKLF 4
END
