TITL CrystalPilot n0020 in I 41/a m d :2
REM CrystalPilot node n0020 tool=refine
REM R1 = 0.0624 wR2 = 0.2045 GooF = 1.031
CELL 1.54178 15.85170 15.85170 57.50380 90.0000 90.0000 90.0000
ZERR 4 0.00010 0.00010 0.00130 0.0000 0.0000 0.0000
LATT 2
SYMM -Y+1/4,X+3/4,Z+1/4
SYMM Y+1/4,-X+1/4,Z+3/4
SYMM X,-Y,-Z
SYMM -X,Y+1/2,-Z
SYMM -X,-Y+1/2,Z
SYMM Y+1/4,X+3/4,-Z+1/4
SYMM -Y+1/4,-X+1/4,-Z+3/4
SFAC C H O Zr
UNIT 272.0 144.0 128.0 24.0

WGHT 0.142330 13.550750
FVAR 0.12830
FE01  4   0.000000   0.250000   0.331566    10.25000     0.05421     0.03139 =
      0.03546     0.00000    -0.00000    -0.00000
ZR02  4   0.110245   0.360245   0.375000    10.50000     0.06227     0.06227 =
      0.04242    -0.00298     0.00298    -0.02919
O004  3   0.126302   0.250000   0.350638    10.50000     0.04631     0.07582 =
      0.05011     0.00000     0.01117    -0.00000
O005  3   0.089424   0.335457   0.437106    11.00000     0.06103     0.10081 =
      0.06959    -0.02171    -0.01579    -0.01377
O006  3   0.161232   0.404884   0.407963    11.00000     0.10553     0.14675 =
      0.05827    -0.01306    -0.01007    -0.06164
O007  3   0.074831   0.500865   0.374936    10.50000     0.37137     0.06482 =
      0.04641    -0.01967     0.04958    -0.14029
C008  1   0.217720   0.386699   0.468533    11.00000     0.05801     0.11934 =
      0.06628    -0.02315    -0.00600    -0.00408
AFIX 43
H008  2   0.176757   0.349977   0.474152    11.00000    -1.20000
AFIX 0
C009  1   0.214083   0.415214   0.445890    11.00000     0.05989     0.10516 =
      0.06896    -0.02493    -0.00550    -0.01255
C00A  1   0.148669   0.383736   0.429142    11.00000     0.06564     0.10391 =
      0.06471    -0.01550    -0.00507    -0.02053
C00B  1   0.500000   0.472093   0.477624    10.50000     0.04837     0.14448 =
      0.08699    -0.05662    -0.00000    -0.00000
AFIX 43
H00B  2   0.500000   0.451125   0.462520    10.50000    -1.20000
AFIX 0
C00D  1   0.345065   0.468393   0.474575    11.00000     0.05115     0.12741 =
      0.07591    -0.04657    -0.00338    -0.00297
C00E  1   0.422338   0.487319   0.488592    11.00000     0.05188     0.12555 =
      0.07071    -0.04139    -0.00174    -0.00425
C00F  1   0.272603   0.473406   0.437644    11.00000     0.07662     0.13707 =
      0.08014    -0.01038    -0.01162    -0.03829
AFIX 43
H00F  2   0.267733   0.495627   0.422737    11.00000    -1.20000
AFIX 0
O5X   3   0.000000   0.156526   0.356560    10.50000     0.05983     0.03124 =
      0.04109     0.00298    -0.00000    -0.00000
C8X   1   0.163024   0.032456   0.732746    11.00000     0.13644     0.06385 =
      0.06616    -0.00184    -0.02581     0.00003
AFIX 43
H8X   2   0.143846   0.034808   0.748017    11.00000    -1.20000
AFIX 0
C9X   1   0.161459   0.002306   0.047860    11.00000     0.07290     0.13405 =
      0.08519    -0.01370    -0.01223    -0.02798
AFIX 43
H9X   2   0.120757  -0.034690   0.053487    11.00000    -1.20000
AFIX 0
O6X   3   0.096697   0.002480   0.373769    10.50000     0.31290     0.06578 =
      0.09099    -0.00688     0.05466    -0.00057
HKLF 4
END
