TITL CrystalPilot n0080 in P -1
REM CrystalPilot node n0080 tool=run_shelxl
REM R1 = 0.0743 wR2 = 0.2257 GooF = 1.108
CELL 0.71073 10.15540 12.70750 20.80080 107.6910 100.3150 96.2330
ZERR 2 0.00170 0.00210 0.00440 0.0030 0.0030 0.0020
LATT 1
SFAC C H N P Ni La
UNIT 96.0 44.4 8.0 4.0 2.0 2.0

DFIX 1.3900 0.010 C28 C40
DFIX 1.3900 0.010 C40 C42
DFIX 1.3900 0.010 C42 C34
DFIX 1.3900 0.010 C34 C39
DFIX 1.3900 0.010 C39 C43
DFIX 1.3900 0.010 C43 C28
FLAT 0.01 C28 C40 C42 C34 C39 C43
SADI 0.020 P1 C22 C22 C25 C22 C30 P1 C16 C16 C33 C16 C32 P1 C22B C22B C25B =
 C22B C30B P1 C16B C16B C33B C16B C32B
SIMU 0.010 0.020 P1 C22 C25 C30 C16 C33 C32 C22B C25B C30B C16B C33B C32B
SADI 0.020 C11 C36 C11 C38 C11 C31 C11 C36B C11 C38B C11 C31B
SIMU 0.010 0.020 C11 C36 C38 C31 C36B C38B C31B
SADI 0.020 C27 C44 C27 C37 C27 C41 C27 C44B C27 C37B C27 C41B
SIMU 0.010 0.020 C27 C44 C37 C41 C44B C37B C41B
SADI 0.020 C28 C40 C40 C42 C42 C34 C34 C39 C39 C43 C43 C28 C28B C40B C40B =
 C42B C42B C34B C34B C39B C39B C43B C43B C28B
FLAT 0.01 C28B C40B C42B C34B C39B C43B
SIMU 0.010 0.020 C28 C40 C42 C34 C39 C43 C28B C40B C42B C34B C39B C43B

WGHT 0.082660 10.758620
FVAR 0.18861 0.61451 0.73749 0.49808 0.74084
LA1   6   0.429128   0.291534   0.269797    11.00000     0.04329     0.03291 =
      0.04279     0.00575     0.00736     0.00971
NI1   5   0.466910   0.070228   0.207492    11.00000     0.04982     0.03167 =
      0.04613     0.00548     0.01020     0.01110
P1    4   0.260728   0.052229   0.145732    11.00000     0.05127     0.03282 =
      0.04657     0.00317     0.00515     0.00665
P2    4   0.511687   0.071661   0.314979    11.00000     0.05940     0.03533 =
      0.04863     0.00980     0.00947     0.01464
N1    3   0.251615   0.281029   0.169919    11.00000     0.05827     0.03143 =
      0.04664     0.00614     0.00271     0.01133
N2    3   0.382977   0.246570   0.375566    11.00000     0.06492     0.04149 =
      0.04637     0.00937     0.01610     0.01675
N3    3   0.627562   0.295834   0.216806    11.00000     0.04770     0.04277 =
      0.05321     0.01001     0.00916     0.00298
C1    1   0.294985   0.493728   0.270063    11.00000     0.05401     0.03504 =
      0.04982     0.00650     0.00336     0.01280
N4    1   0.117156   0.349089   0.082972    11.00000     0.07501     0.04494 =
      0.04141     0.00900     0.00308     0.01029
AFIX 43
HN4   2   0.103989   0.279858   0.048377    11.00000    -1.20000
AFIX 0
N5    1   0.245128   0.449427   0.316107    11.00000     0.05588     0.04065 =
      0.04445     0.00521     0.00588     0.01606
N6    1   0.328078   0.458329   0.380058    11.00000     0.05803     0.03527 =
      0.04142     0.00134     0.00703     0.01388
C2    1   0.194833   0.363035   0.149789    11.00000     0.05468     0.03738 =
      0.04556     0.01307     0.00508     0.00991
C3    1   0.570071  -0.143977   0.142333    11.00000     0.08460     0.03345 =
      0.05653     0.00626     0.02042     0.02664
N7    1   0.211865   0.472413   0.199164    11.00000     0.05290     0.03758 =
      0.04579     0.00898     0.00661     0.00574
C4    1   0.593997   0.187535   0.192812    11.00000     0.05296     0.04639 =
      0.05699     0.01271     0.01278     0.01221
C5    1   0.430009   0.550666   0.288395    11.00000     0.06316     0.03697 =
      0.06579     0.01194     0.00528     0.00526
C6    1   0.273847   0.401731   0.425756    11.00000     0.06344     0.05037 =
      0.04124     0.00415     0.00631     0.02032
C7    1   0.218295   0.171338   0.115766    11.00000     0.07454     0.03884 =
      0.05167     0.00563    -0.00495     0.01332
C8    1   0.153716   0.557943   0.182969    11.00000     0.08059     0.04135 =
      0.06016     0.01397     0.00401     0.01525
AFIX 43
H8    2   0.165477   0.627753   0.216857    11.00000    -1.20000
AFIX 0
N8    3   0.529215  -0.060991   0.166219    11.00000     0.07348     0.05805 =
      0.06413     0.01696     0.01324     0.01167
C9    1   0.193406   0.451188   0.469833    11.00000     0.07286     0.07364 =
      0.05028     0.00623     0.01826     0.03119
AFIX 43
H9    2   0.171969   0.520813   0.470605    11.00000    -1.20000
AFIX 0
C10   1   0.460552   0.514861   0.397088    11.00000     0.06990     0.04402 =
      0.04946     0.00140    -0.00240     0.00947
C11   1   0.735698   0.360984   0.198521    11.00000     0.06363     0.05805 =
      0.08103     0.02302     0.02791     0.00614
C12   1   0.060577   0.434820   0.067671    11.00000     0.10347     0.06152 =
      0.05024     0.02294    -0.00571     0.01287
AFIX 43
H12   2   0.009355   0.421138   0.023259    11.00000    -1.20000
AFIX 0
C13   1   0.309466   0.294449   0.421898    11.00000     0.06350     0.04419 =
      0.04425     0.00799     0.01317     0.01139
C14   1   0.175834   0.296262   0.511401    11.00000     0.08530     0.08513 =
      0.05851     0.01374     0.02705     0.01288
AFIX 43
H14   2   0.142138   0.260128   0.539338    11.00000    -1.20000
AFIX 0
C15   1   0.689995   0.134742   0.365289    11.00000     0.06681     0.05733 =
      0.06072     0.01931    -0.00197     0.01178
PART 1
C16   1   0.107223   0.021447   0.175011    21.00000     0.05600
PART 0
C17   1   0.514650   0.561150   0.353118    11.00000     0.06590     0.04474 =
      0.06276     0.00688    -0.00106    -0.00229
C18   1   0.716426   0.263627   0.386398    11.00000     0.07246     0.06592 =
      0.07501     0.01647     0.00428     0.00207
AFIX 137
H18A  2   0.808591   0.292347   0.411959    11.00000    -1.50000
H18B  2   0.655526   0.293673   0.414770    11.00000    -1.50000
H18C  2   0.701635   0.285189   0.345622    11.00000    -1.50000
AFIX 0
C19   1   0.415724   0.138679   0.381303    11.00000     0.07971     0.04756 =
      0.04937     0.01608     0.02028     0.02195
C20   1   0.077264   0.540151   0.115906    11.00000     0.11259     0.05283 =
      0.06052     0.02310    -0.00126     0.02809
AFIX 43
H20   2   0.039396   0.597374   0.104558    11.00000    -1.20000
AFIX 0
C21   1   0.258227   0.245371   0.468367    11.00000     0.08467     0.06178 =
      0.05186     0.01645     0.02270     0.01505
AFIX 43
H21   2   0.280844   0.177023   0.469829    11.00000    -1.20000
AFIX 0
PART 1
C22   1   0.209173  -0.058368   0.061996    21.00000     0.05633
PART 0
C23   1   0.144229   0.399150   0.512775    11.00000     0.07757     0.09097 =
      0.06241     0.01662     0.03285     0.03361
AFIX 43
H23   2   0.090690   0.433524   0.542016    11.00000    -1.20000
AFIX 0
C24   1   0.497819  -0.073563   0.321452    11.00000     0.10821     0.04148 =
      0.07814     0.02460     0.01574     0.01996
PART 1
C25   1   0.327845  -0.041666   0.016913    21.00000     0.05746
PART 0
C26   1   0.360531  -0.142376   0.283656    11.00000     0.11178     0.05259 =
      0.09952     0.02457     0.01518    -0.00476
AFIX 137
H26A  2   0.356171  -0.215841   0.287761    11.00000    -1.50000
H26B  2   0.345951  -0.148591   0.235657    11.00000    -1.50000
H26C  2   0.291635  -0.106722   0.303369    11.00000    -1.50000
AFIX 0
C27   1   0.606308  -0.253818   0.114017    11.00000     0.09032     0.05257 =
      0.08688     0.01524     0.02945     0.03768
PART 1
C28   1   1.094527   0.716555   0.371965    51.00000     0.10947
PART 0
C29   1   0.791499   0.087209   0.322750    11.00000     0.06092     0.11492 =
      0.11216     0.03547     0.00866     0.03565
AFIX 137
H29A  2   0.882445   0.119994   0.348931    11.00000    -1.50000
H29B  2   0.776578   0.104535   0.280483    11.00000    -1.50000
H29C  2   0.779074   0.007315   0.312182    11.00000    -1.50000
AFIX 0
PART 1
C30   1   0.180654  -0.184985   0.072305    21.00000     0.09179
C31   1   0.865422   0.306100   0.198330    31.00000     0.09353
C32   1   0.102692   0.120962   0.247304    21.00000     0.09289
C33   1  -0.041734   0.018206   0.121169    21.00000     0.09735
C34   1   1.056643   0.939240   0.405854    51.00000     0.11351
PART 0
C35   1   0.541604  -0.080459   0.394776    11.00000     0.17607     0.07338 =
      0.09893     0.05106     0.00985     0.02559
AFIX 137
H35A  2   0.530658  -0.157664   0.392346    11.00000    -1.50000
H35B  2   0.486203  -0.041995   0.423785    11.00000    -1.50000
H35C  2   0.635206  -0.046011   0.413839    11.00000    -1.50000
AFIX 0
PART 1
C36   1   0.771930   0.482310   0.250014    31.00000     0.09487
C37   1   0.662522  -0.249908   0.050735    41.00000     0.09453
C38   1   0.678015   0.369032   0.125364    31.00000     0.08655
AFIX 137
PART 0
H38A  2   0.746752   0.411160   0.112356    10.73749    -1.50000
H38B  2   0.600426   0.405904   0.126970    10.73749    -1.50000
H38C  2   0.651544   0.294960   0.091967    10.73749    -1.50000
AFIX 0
PART 1
C39   1   1.143481   0.906077   0.452649    51.00000     0.11866
C40   1   1.007945   0.749615   0.325358    51.00000     0.11406
C41   1   0.474542  -0.346553   0.087405    41.00000     0.08937
C42   1   0.989765   0.860672   0.342740    51.00000     0.11781
C43   1   1.161357   0.795006   0.435092    51.00000     0.11810
C44   1   0.704029  -0.273781   0.173441    41.00000     0.09137
PART 2
C22B  1   0.239590  -0.040249   0.056898   -21.00000     0.05135
C25B  1   0.381586  -0.031930   0.024017   -21.00000     0.08763
C30B  1   0.208022  -0.174636   0.055594   -21.00000     0.04127
C16B  1   0.125369  -0.005914   0.173494   -21.00000     0.06829
C33B  1  -0.037603  -0.019795   0.129170   -21.00000     0.06908
C32B  1   0.098373   0.085609   0.246519   -21.00000     0.06495
C36B  1   0.814633   0.448549   0.270675   -31.00000     0.07632
C38B  1   0.703343   0.483696   0.221372   -31.00000     0.08076
C31B  1   0.840109   0.292188   0.168004   -31.00000     0.05367
C44B  1   0.746631  -0.254631   0.158599   -41.00000     0.09164
C37B  1   0.614388  -0.264740   0.039116   -41.00000     0.09847
C41B  1   0.493825  -0.343973   0.118232   -41.00000     0.08721
C28B  1   1.185445   0.746192   0.406075   -51.00000     0.11023
C43B  1   1.219206   0.860061   0.443478   -51.00000     0.11489
C39B  1   1.123121   0.926276   0.432804   -51.00000     0.11887
C34B  1   0.999229   0.877994   0.386367   -51.00000     0.11807
C42B  1   0.964726   0.764175   0.348807   -51.00000     0.11497
C40B  1   1.061871   0.700595   0.360358   -51.00000     0.11080
PART 0
HKLF 4
END
