TITL CrystalPilot n0047 in C 2 2 21
REM CrystalPilot node n0047 tool=refine
REM R1 = 0.056 wR2 = 0.1706 GooF = 1.519
CELL 0.68914 15.79000 32.31000 11.86000 90.0000 90.0000 90.0000
ZERR 8 0 0 0 0 0 0
LATT -7
SYMM X,-Y,-Z
SYMM -X,Y,-Z+1/2
SYMM -X,-Y,Z+1/2
SFAC C O Cu
UNIT 210.8 40.0 8.0

WGHT 0.100000 0.000000
FVAR 0.27892
CU1   3   0.069031   0.019838   0.363612    11.00000     0.03955     0.02045 =
      0.08322     0.00082    -0.01856    -0.00184
C1    1   0.071543   0.294448   0.210801    11.00000     0.03286     0.01729 =
      0.04871    -0.00410     0.01128    -0.00136
C2    1   0.000000   0.272149   0.250000    10.50000     0.03393     0.01394 =
      0.05000     0.00000     0.00527    -0.00000
C3    1   0.000000   0.405796   0.250000    10.50000     0.08327     0.00890 =
      0.04863     0.00000     0.00665    -0.00000
O1    2   0.159192   0.046577   0.449390    11.00000     0.04831     0.04794 =
      0.07694     0.00359    -0.02376    -0.02106
C4    1   0.000000   0.360016   0.250000    10.50000     0.04676     0.01606 =
      0.04929     0.00000     0.01033    -0.00000
C5    1   0.071815   0.337783   0.211337    11.00000     0.03887     0.02151 =
      0.04540    -0.00244     0.00649    -0.00433
O2    2   0.031637   0.076317   0.335885    11.00000     0.08663     0.02103 =
      0.09300     0.00259    -0.03144     0.00380
C6    1   0.000000   0.140494   0.250000    10.50000     0.05785     0.01570 =
      0.05552     0.00000    -0.01382    -0.00000
O3    2   0.000000  -0.002095   0.250000    10.50000     0.10094     0.02232 =
      0.15497     0.00000    -0.07906    -0.00000
C7    1   0.217766   0.218441   0.063295    11.00000     0.11281     0.11091 =
      0.04232     0.00079     0.01270     0.07854
O4    2   0.122980   0.033728   0.628720    11.00000     0.05545     0.03628 =
      0.08904    -0.01239     0.02996    -0.02254
C8    1   0.148332   0.271216   0.175479    11.00000     0.04228     0.03032 =
      0.04763    -0.00668     0.01506     0.00083
C9    1   0.000000   0.226633   0.250000    10.50000     0.04078     0.01749 =
      0.05053     0.00000     0.00306    -0.00000
C10   1   0.229524   0.083077   0.592367    11.00000     0.03974     0.03231 =
      0.05699    -0.00053     0.00135    -0.01149
C11   1   0.144994   0.362556   0.168622    11.00000     0.04513     0.03544 =
      0.04815    -0.00168     0.00211    -0.01893
C12   1   0.168634   0.362117   0.055149    11.00000     0.04117     0.04426 =
      0.04726    -0.00006     0.00612    -0.01545
C13   1   0.121816   0.333442   0.724399    11.00000     0.13708     0.14202 =
      0.05908    -0.01125    -0.00730     0.09452
C14   1   0.146254   0.242978   0.085483    11.00000     0.09569     0.04940 =
      0.04122    -0.00404     0.01389     0.03102
C15   1   0.206650   0.249781   0.718896    11.00000     0.05422     0.10358 =
      0.06752    -0.01144    -0.01102     0.02939
C16   1   0.229909   0.389911   0.017175    11.00000     0.04667     0.03237 =
      0.05857    -0.00365     0.01449    -0.01144
C17   1   0.054273   0.161761   0.321641    11.00000     0.05917     0.02570 =
      0.06817    -0.00301    -0.02185     0.00235
C18   1   0.055162   0.204450   0.319327    11.00000     0.04446     0.02265 =
      0.06201    -0.00116    -0.01352     0.00256
C19   1   0.222215   0.274455   0.236945    11.00000     0.03662     0.07619 =
      0.07222    -0.00702     0.00655     0.01418
C20   1   0.003008   0.427531   0.150388    11.00000     0.16293     0.02101 =
      0.04417     0.00245     0.01510    -0.00009
O5    2   0.030486   0.000000   0.000000    10.50000     0.03631     0.13304 =
      0.15669    -0.03393    -0.00000    -0.00000
C21   1   0.210453   0.278923   0.629827    11.00000     0.10474     0.13038 =
      0.05186    -0.00840    -0.02432     0.08621
C22   1   0.188184   0.388209   0.244234    11.00000     0.07846     0.04988 =
      0.04807    -0.00377    -0.00751    -0.03137
C23   1   0.000000   0.492119   0.250000    10.50000     0.63947     0.02112 =
      0.05154     0.00000     0.08046    -0.00000
C24   1   0.000000   0.092563   0.250000    10.50000     0.06006     0.02297 =
      0.07311     0.00000    -0.01921    -0.00000
C25   1   0.251097   0.084303   0.707567    11.00000     0.06726     0.04747 =
      0.05485     0.00168     0.00447    -0.03177
C26   1   0.005341   0.470162   0.149847    11.00000     0.38597     0.02369 =
      0.04981     0.00585     0.04322     0.00772
C27   2   0.108123   0.316914   0.513656    11.00000     0.11339     0.18296 =
      0.20271     0.00519    -0.02953     0.06451
C29X  1   0.164744   0.052576   0.553741    11.00000     0.03852     0.02547 =
      0.07417    -0.00059     0.00753    -0.00867
C30X  1   0.129280   0.306047   0.616398    11.00000     0.14141     0.19592 =
      0.04682    -0.03527    -0.03397     0.13214
C32X  1   0.051139   0.281802   0.597479    11.00000     0.10117     0.27353 =
      0.12714    -0.11999    -0.07306     0.12502
C34X  1   0.173806   0.351269   0.525447    10.85000     0.20669     0.18180 =
      0.07291     0.05485     0.04004     0.15522
HKLF 4
END
