TITL CrystalPilot n0031 in P -1
REM CrystalPilot node n0031 tool=add_hydrogens
CELL 0.71073 10.15540 12.70750 20.80080 107.6910 100.3150 96.2330
ZERR 2 0.00170 0.00210 0.00440 0.0030 0.0030 0.0020
LATT 1
SFAC C H N P Ni La
UNIT 88.0 110.0 16.0 4.0 2.0 2.0

WGHT 0.103410 10.855880
FVAR 0.18986
LA1   6   0.429121   0.291506   0.269805    11.00000     0.04307     0.03268 =
      0.04260     0.00565     0.00735     0.00960
NI1   5   0.466837   0.070223   0.207488    11.00000     0.04987     0.03165 =
      0.04631     0.00535     0.01027     0.01106
P1    4   0.260707   0.052219   0.145662    11.00000     0.05170     0.03279 =
      0.04689     0.00307     0.00522     0.00687
P2    4   0.511703   0.071573   0.314935    11.00000     0.06015     0.03572 =
      0.04888     0.00972     0.00956     0.01483
N1    3   0.252111   0.280787   0.170049    11.00000     0.05686     0.03262 =
      0.04755     0.00747     0.00344     0.01099
N2    3   0.382496   0.246271   0.375158    11.00000     0.06576     0.04158 =
      0.04777     0.00989     0.01705     0.01668
N3    3   0.628107   0.297222   0.217563    11.00000     0.04629     0.04365 =
      0.05423     0.00976     0.00942     0.00316
C1    1   0.295452   0.494289   0.270008    11.00000     0.05727     0.03489 =
      0.04962     0.00722     0.00416     0.01259
N4    3   0.116630   0.349168   0.082856    11.00000     0.08817     0.06042 =
      0.05295     0.01459     0.00400     0.01250
N5    3   0.245566   0.448561   0.315779    11.00000     0.06567     0.05427 =
      0.05505     0.00843     0.00633     0.01913
N6    3   0.328718   0.457327   0.379954    11.00000     0.07055     0.04558 =
      0.05237     0.00360     0.00809     0.01835
C2    1   0.194070   0.363145   0.149761    11.00000     0.05289     0.03882 =
      0.04630     0.01381     0.00709     0.00997
C3    1   0.571224  -0.143341   0.142537    11.00000     0.08670     0.03450 =
      0.05731     0.00618     0.02131     0.02859
N7    3   0.211921   0.472396   0.199020    11.00000     0.06048     0.04847 =
      0.05742     0.01189     0.00703     0.00731
C4    1   0.592963   0.187257   0.192387    11.00000     0.05171     0.04640 =
      0.05740     0.01222     0.01394     0.01242
C5    1   0.430986   0.551652   0.288404    11.00000     0.06278     0.03869 =
      0.06583     0.01315     0.00611     0.00523
C6    1   0.274700   0.402194   0.425495    11.00000     0.06236     0.05027 =
      0.04181     0.00470     0.00645     0.01918
C7    1   0.219968   0.171488   0.115383    11.00000     0.07529     0.03995 =
      0.04992     0.00463    -0.00417     0.01441
C8    1   0.152934   0.559277   0.183960    11.00000     0.08304     0.04146 =
      0.06384     0.01646     0.00538     0.01565
AFIX 43
H8    2   0.164394   0.628887   0.218004    11.00000    -1.20000
AFIX 0
N8    3   0.531052  -0.061447   0.165341    11.00000     0.07380     0.06076 =
      0.06396     0.01750     0.01283     0.01384
C9    1   0.194089   0.452330   0.469712    11.00000     0.07697     0.07144 =
      0.04911     0.00505     0.01758     0.03176
AFIX 43
H9    2   0.172854   0.522052   0.470588    11.00000    -1.20000
AFIX 0
C10   1   0.462448   0.514314   0.397112    11.00000     0.06609     0.04433 =
      0.05274     0.00214    -0.00340     0.00905
C11   1   0.733480   0.359283   0.197398    11.00000     0.05883     0.05022 =
      0.08348     0.01647     0.02886     0.00211
C12   1   0.059656   0.435634   0.067933    11.00000     0.09803     0.06008 =
      0.05174     0.02374    -0.00582     0.00867
AFIX 43
H12   2   0.008759   0.422441   0.023516    11.00000    -1.20000
AFIX 0
C13   1   0.308980   0.294830   0.421648    11.00000     0.06343     0.04611 =
      0.04408     0.00697     0.01251     0.01189
C14   1   0.175475   0.298020   0.511998    11.00000     0.08586     0.07955 =
      0.05887     0.01107     0.02602     0.00885
AFIX 43
H14   2   0.142811   0.262724   0.540575    11.00000    -1.20000
AFIX 0
C15   1   0.690446   0.134567   0.364518    11.00000     0.06519     0.05866 =
      0.06194     0.02068    -0.00229     0.01087
C16   1   0.105821   0.015320   0.175701    11.00000     0.04680     0.08242 =
      0.09024     0.02867     0.00934    -0.00237
C17   1   0.513781   0.561271   0.352930    11.00000     0.06375     0.04625 =
      0.06442     0.00836    -0.00098    -0.00373
C18   1   0.715258   0.263792   0.385904    11.00000     0.06770     0.06947 =
      0.07586     0.01669     0.00113     0.00336
AFIX 137
H18A  2   0.807537   0.293138   0.411120    11.00000    -1.50000
H18B  2   0.654620   0.293034   0.414661    11.00000    -1.50000
H18C  2   0.699043   0.285550   0.345228    11.00000    -1.50000
AFIX 0
C19   1   0.416779   0.139117   0.380914    11.00000     0.07715     0.04605 =
      0.04940     0.01562     0.01837     0.01874
C20   1   0.075621   0.540058   0.116336    11.00000     0.11116     0.05340 =
      0.06026     0.02241     0.00065     0.03008
AFIX 43
H20   2   0.036634   0.596857   0.105030    11.00000    -1.20000
AFIX 0
C21   1   0.257186   0.244262   0.468131    11.00000     0.08350     0.06186 =
      0.05280     0.01748     0.02396     0.01524
AFIX 43
H21   2   0.278131   0.175221   0.469080    11.00000    -1.20000
AFIX 0
C22   1   0.222016  -0.055932   0.056535    11.00000     0.08575     0.04933 =
      0.05645    -0.00400    -0.00622     0.01314
C23   1   0.143772   0.398399   0.513556    11.00000     0.07460     0.09175 =
      0.06286     0.01570     0.03033     0.03151
AFIX 43
H23   2   0.089867   0.432254   0.542749    11.00000    -1.20000
AFIX 0
C24   1   0.497008  -0.073126   0.321491    11.00000     0.10438     0.04284 =
      0.07669     0.02411     0.01401     0.01992
C25   1   0.334070  -0.041236   0.019109    11.00000     0.10699     0.07651 =
      0.06119     0.00573     0.01955     0.02697
AFIX 137
H25A  2   0.312243  -0.097087  -0.026061    11.00000    -1.50000
H25B  2   0.418345  -0.049374   0.045023    11.00000    -1.50000
H25C  2   0.342625   0.032065   0.014650    11.00000    -1.50000
AFIX 0
C26   1   0.354466  -0.144726   0.281872    11.00000     0.11192     0.05192 =
      0.10227     0.02474     0.01427    -0.00800
AFIX 137
H26A  2   0.349864  -0.218119   0.286101    11.00000    -1.50000
H26B  2   0.340503  -0.151121   0.233859    11.00000    -1.50000
H26C  2   0.285311  -0.109000   0.301275    11.00000    -1.50000
AFIX 0
C27   1   0.604980  -0.253559   0.114184    11.00000     0.09762     0.04498 =
      0.08538     0.01173     0.03170     0.03807
C28   1   1.078797   0.711209   0.366713    11.00000     0.11927     0.07928 =
      0.12751     0.02858     0.02695     0.02708
AFIX 43
H28   2   1.072010   0.634343   0.357981    11.00000    -1.20000
AFIX 0
C29   1   0.794472   0.091451   0.323779    11.00000     0.06842     0.12120 =
      0.11410     0.03564     0.00955     0.04369
AFIX 137
H29A  2   0.884249   0.125815   0.351059    11.00000    -1.50000
H29B  2   0.780459   0.109698   0.281816    11.00000    -1.50000
H29C  2   0.784579   0.011539   0.312665    11.00000    -1.50000
AFIX 0
C30   1   0.200758  -0.175499   0.062514    11.00000     0.10351     0.04542 =
      0.09685    -0.00903    -0.00831     0.00825
AFIX 137
H30A  2   0.181054  -0.230573   0.017124    11.00000    -1.50000
H30B  2   0.126237  -0.183742   0.084226    11.00000    -1.50000
H30C  2   0.281874  -0.185908   0.089879    11.00000    -1.50000
AFIX 0
C31   1   0.856414   0.302351   0.186267    11.00000     0.07656     0.12473 =
      0.22506     0.07057     0.08797     0.03569
AFIX 137
H31A  2   0.920427   0.348729   0.173185    11.00000    -1.50000
H31B  2   0.827406   0.230947   0.150224    11.00000    -1.50000
H31C  2   0.898667   0.291598   0.228397    11.00000    -1.50000
AFIX 0
C32   1   0.106076   0.101728   0.244932    11.00000     0.08224     0.11984 =
      0.08646     0.01964     0.02371     0.01995
AFIX 137
H32A  2   0.025773   0.081996   0.260024    11.00000    -1.50000
H32B  2   0.107531   0.174412   0.239839    11.00000    -1.50000
H32C  2   0.185086   0.103278   0.278600    11.00000    -1.50000
AFIX 0
C33   1  -0.036358  -0.000842   0.123538    11.00000     0.05032     0.17082 =
      0.13075     0.02241     0.00802    -0.00895
AFIX 137
H33A  2  -0.108968  -0.019591   0.144155    11.00000    -1.50000
H33B  2  -0.040388  -0.060200   0.081247    11.00000    -1.50000
H33C  2  -0.045304   0.067537   0.113812    11.00000    -1.50000
AFIX 0
C34   1   1.054280   0.936617   0.407199    11.00000     0.19550     0.08365 =
      0.14877     0.00152    -0.02279     0.03950
AFIX 43
H34   2   1.040274   1.010541   0.418340    11.00000    -1.20000
AFIX 0
C35   1   0.541434  -0.081988   0.395446    11.00000     0.16027     0.07853 =
      0.10204     0.05305     0.00684     0.01882
AFIX 137
H35A  2   0.529496  -0.159490   0.392358    11.00000    -1.50000
H35B  2   0.486726  -0.043481   0.424874    11.00000    -1.50000
H35C  2   0.635325  -0.048427   0.414460    11.00000    -1.50000
AFIX 0
C36   1   0.776644   0.476931   0.249304    11.00000     0.17453     0.08076 =
      0.20475    -0.03056     0.11074    -0.05297
AFIX 137
H36A  2   0.846083   0.517664   0.235909    11.00000    -1.50000
H36B  2   0.811434   0.472929   0.294402    11.00000    -1.50000
H36C  2   0.699737   0.514670   0.250457    11.00000    -1.50000
AFIX 0
C37   1   0.640178  -0.254947   0.046619    11.00000     0.17792     0.13541 =
      0.09737    -0.00141     0.05031     0.06348
AFIX 137
H37A  2   0.663898  -0.326161   0.024609    11.00000    -1.50000
H37B  2   0.715778  -0.196332   0.055259    11.00000    -1.50000
H37C  2   0.563288  -0.243232   0.016934    11.00000    -1.50000
AFIX 0
C38   1   0.669319   0.372130   0.126143    11.00000     0.13656     0.12580 =
      0.13696     0.07351     0.03970     0.00066
AFIX 137
H38A  2   0.736917   0.412876   0.111668    11.00000    -1.50000
H38B  2   0.594849   0.412169   0.131257    11.00000    -1.50000
H38C  2   0.637017   0.299189   0.091999    11.00000    -1.50000
AFIX 0
C39   1   1.145071   0.905564   0.448030    11.00000     0.17219     0.14911 =
      0.09356     0.01077    -0.01928     0.00220
AFIX 43
H39   2   1.190917   0.956185   0.490959    11.00000    -1.20000
AFIX 0
C40   1   1.002750   0.747313   0.326880    11.00000     0.13115     0.08830 =
      0.16771     0.01212    -0.01446     0.01571
AFIX 43
H40   2   0.960579   0.699446   0.282546    11.00000    -1.20000
AFIX 0
C41   1   0.485532  -0.347215   0.101511    11.00000     0.13982     0.05425 =
      0.27037     0.04374     0.07979     0.02676
AFIX 137
H41A  2   0.511761  -0.418660   0.082797    11.00000    -1.50000
H41B  2   0.409817  -0.339443   0.069322    11.00000    -1.50000
H41C  2   0.460035  -0.342334   0.144458    11.00000    -1.50000
AFIX 0
C42   1   0.980595   0.854994   0.347113    11.00000     0.16114     0.12586 =
      0.14796     0.01225    -0.01163     0.03293
AFIX 43
H42   2   0.912336   0.874629   0.319041    11.00000    -1.20000
AFIX 0
C43   1   1.175028   0.786697   0.424952    11.00000     0.14686     0.25241 =
      0.20558     0.16868     0.03116     0.06108
AFIX 43
H43   2   1.250191   0.765371   0.447201    11.00000    -1.20000
AFIX 0
C44   1   0.731285  -0.258261   0.167953    11.00000     0.16863     0.10354 =
      0.14618     0.03246     0.00192     0.07572
AFIX 137
H44A  2   0.759142  -0.329784   0.152175    11.00000    -1.50000
H44B  2   0.707852  -0.248088   0.211896    11.00000    -1.50000
H44C  2   0.804433  -0.199799   0.172811    11.00000    -1.50000
AFIX 0
HKLF 4
END
