TITL CrystalPilot n0002 in C 2 2 21
REM CrystalPilot node n0002 tool=refine
REM R1 = 0.139 wR2 = 0.4124 GooF = 3.884
CELL 0.68914 15.79000 32.31000 11.86000 90.0000 90.0000 90.0000
ZERR 8 0 0 0 0 0 0
LATT -7
SYMM X,-Y,-Z
SYMM -X,Y,-Z+1/2
SYMM -X,-Y,Z+1/2
SFAC C O Cu
UNIT 240.0 32.0 8.0

WGHT 0.100000 0.000000
FVAR 0.27941
CU1   3   0.068935   0.019846   0.363505    11.00000     0.03933     0.02000 =
      0.08220     0.00100    -0.01874    -0.00240
C1    1   0.071381   0.293810   0.210898    11.00000     0.03573
C2    1   0.000000   0.273187   0.250000    10.50000     0.03380
C3    1   0.000000   0.405049   0.250000    10.50000     0.04902
O1    2   0.159223   0.046008   0.447640    11.00000     0.05305
C4    1   0.000000   0.359463   0.250000    10.50000     0.03814
C5    1   0.071121   0.337396   0.210961    11.00000     0.03527
O2    2   0.032639   0.076557   0.335915    11.00000     0.06099
C6    1   0.000000   0.141536   0.250000    10.50000     0.05085
O3    2   0.000000  -0.002929   0.250000    10.50000     0.08664
C7    1   0.218632   0.217820   0.063221    11.00000     0.06825
O4    2   0.124891   0.033422   0.629020    11.00000     0.05712
C8    1   0.148684   0.271514   0.175858    11.00000     0.04156
C9    1   0.000000   0.226883   0.250000    10.50000     0.04109
C10   1   0.230138   0.083482   0.592212    11.00000     0.04630
C11   1   0.144122   0.362331   0.171767    11.00000     0.04167
C12   1   0.168638   0.362696   0.055906    11.00000     0.04372
C13   1   0.116795   0.332819   0.723593    11.00000     0.08821
C14   1   0.145704   0.241759   0.085962    11.00000     0.05360
C15   1   0.205909   0.249806   0.718065    11.00000     0.06778
C16   1   0.229817   0.389655   0.018381    11.00000     0.04675
C17   1   0.054033   0.161679   0.320173    11.00000     0.04913
C18   1   0.054705   0.204919   0.319625    11.00000     0.04693
C19   1   0.222425   0.274534   0.237054    11.00000     0.06409
C20   1   0.006986   0.427652   0.148411    11.00000     0.05851
O5    2   0.027876   0.000000   0.000000    10.50000     0.10880
C21   1   0.209820   0.277909   0.630464    11.00000     0.06881
C22   1   0.189426   0.387958   0.244262    11.00000     0.05595
C23   1   0.000000   0.491468   0.250000    10.50000     0.08288
C24   1   0.000000   0.092877   0.250000    10.50000     0.05871
C25   1   0.250798   0.084183   0.707620    11.00000     0.05454
C26   1   0.010253   0.468898   0.149164    11.00000     0.08598
C27   1   0.107508   0.317817   0.512216    11.00000     0.10831
C28   1   0.000000   0.462235   0.750000    10.50000     0.15837
C29X  1   0.165082   0.052648   0.554441    11.00000     0.04749
C30X  1   0.120465   0.300454   0.620708    11.00000     0.07837
C31X  1   0.034791   0.441454   0.850976    11.00000     0.11172
C32X  1   0.046801   0.274288   0.605960    11.00000     0.11122
C33X  1   0.073753   0.295033   0.548056    11.00000     0.16867
C34X  1   0.176880   0.350678   0.523333    11.00000     0.13081
HKLF 4
END
