TITL CrystalPilot n0023 in I 41/a m d :2
REM CrystalPilot node n0023 tool=refine
REM R1 = 0.0738 wR2 = 0.2339 GooF = 1.188
CELL 1.54178 15.85170 15.85170 57.50380 90.0000 90.0000 90.0000
ZERR 4 0.00010 0.00010 0.00130 0.0000 0.0000 0.0000
LATT 2
SYMM -Y+1/4,X+3/4,Z+1/4
SYMM Y+1/4,-X+1/4,Z+3/4
SYMM X,-Y,-Z
SYMM -X,Y+1/2,-Z
SYMM -X,-Y+1/2,Z
SYMM Y+1/4,X+3/4,-Z+1/4
SYMM -Y+1/4,-X+1/4,-Z+3/4
SFAC C H O Zr
UNIT 272.0 144.0 112.0 24.0

WGHT 0.142330 13.550750
FVAR 0.12792
FE01  4   0.000000   0.250000   0.331575    10.25000     0.05431     0.03112 =
      0.03546     0.00000    -0.00000    -0.00000
ZR02  4   0.110241   0.360241   0.375000    10.50000     0.06224     0.06224 =
      0.04231    -0.00304     0.00304    -0.02926
O004  3   0.126251   0.250000   0.350658    10.50000     0.04758     0.07640 =
      0.04753     0.00000     0.01175    -0.00000
O005  3   0.089477   0.335422   0.437132    11.00000     0.06145     0.10313 =
      0.07102    -0.02284    -0.01735    -0.01414
O006  3   0.161148   0.404947   0.407907    11.00000     0.10363     0.14707 =
      0.06127    -0.01494    -0.00991    -0.05994
O007  3   0.074645   0.500871   0.374746    10.50000     0.26818     0.03001 =
      0.02787    -0.00794     0.03383    -0.08307
C008  1   0.217758   0.386678   0.468442    11.00000     0.05788     0.11963 =
      0.06823    -0.02207    -0.00911    -0.00509
AFIX 43
H008  2   0.176788   0.349859   0.474047    11.00000    -1.20000
AFIX 0
C009  1   0.214139   0.415183   0.445807    11.00000     0.06003     0.10392 =
      0.06808    -0.02581    -0.00305    -0.01230
C00A  1   0.148667   0.383714   0.429261    11.00000     0.06448     0.10006 =
      0.06526    -0.01204    -0.00449    -0.01867
C00B  1   0.500000   0.472173   0.477692    10.50000     0.05176     0.14437 =
      0.08040    -0.05464    -0.00000    -0.00000
AFIX 43
H00B  2   0.500000   0.451283   0.462517    10.50000    -1.20000
AFIX 0
C00D  1   0.345076   0.468346   0.474625    11.00000     0.05087     0.12797 =
      0.07527    -0.04727    -0.00393    -0.00081
C00E  1   0.422391   0.487295   0.488572    11.00000     0.05205     0.12521 =
      0.07110    -0.04255    -0.00214    -0.00440
C00F  1   0.272587   0.473309   0.437560    11.00000     0.07813     0.13860 =
      0.07883    -0.01350    -0.00902    -0.03773
AFIX 43
H00F  2   0.267713   0.495537   0.422695    11.00000    -1.20000
AFIX 0
O5X   3   0.000000   0.156565   0.356549    10.50000     0.05975     0.03241 =
      0.03892     0.00134    -0.00000    -0.00000
C8X   1   0.163041   0.032480   0.732759    11.00000     0.13323     0.06360 =
      0.06798    -0.00217    -0.02755    -0.00018
AFIX 43
H8X   2   0.143917   0.034651   0.748071    11.00000    -1.20000
AFIX 0
C9X   1   0.161449   0.002325   0.047878    11.00000     0.07149     0.13072 =
      0.08905    -0.01536    -0.01270    -0.02565
AFIX 43
H9X   2   0.120748  -0.034667   0.053546    11.00000    -1.20000
AFIX 0
HKLF 4
END
