TITL CrystalPilot n0144 in P -1
REM CrystalPilot node n0144 tool=add_hydrogens
CELL 0.71073 10.15540 12.70750 20.80080 107.6910 100.3150 96.2330
ZERR 2 0.00170 0.00210 0.00440 0.0030 0.0030 0.0020
LATT 1
SFAC C H N P Ni La
UNIT 96.0 129.8 8.0 4.0 2.0 2.0

DFIX 1.3900 0.010 C28 C40
DFIX 1.3900 0.010 C40 C42
DFIX 1.3900 0.010 C42 C34
DFIX 1.3900 0.010 C34 C39
DFIX 1.3900 0.010 C39 C43
DFIX 1.3900 0.010 C43 C28
DFIX 1.3900 0.010 C28B C40B
DFIX 1.3900 0.010 C40B C42B
DFIX 1.3900 0.010 C42B C34B
DFIX 1.3900 0.010 C34B C39B
DFIX 1.3900 0.010 C39B C43B
DFIX 1.3900 0.010 C43B C28B
FLAT 0.01 C28 C40 C42 C34 C39 C43
FLAT 0.01 C28B C40B C42B C34B C39B C43B
SADI 0.020 P1 C22 P1 C16 P1 C22B P1 C16B
SADI 0.020 C22 C25 C22 C30 C16 C33 C16 C32 C22B C25B C22B C30B C16B C33B =
 C16B C32B
SIMU 0.010 0.020 P1 C22 C25 C30 C16 C33 C32 C22B C25B C30B C16B C33B C32B
SADI 0.020 C11 C36 C11 C38 C11 C31 C11 C36B C11 C38B C11 C31B
SIMU 0.010 0.020 C11 C36 C38 C31 C36B C38B C31B
SADI 0.020 C27 C44 C27 C37 C27 C41 C27 C44B C27 C37B C27 C41B
SIMU 0.010 0.020 C27 C44 C37 C41 C44B C37B C41B
SIMU 0.010 0.020 C28 C40 C42 C34 C39 C43 C28B C40B C42B C34B C39B C43B

WGHT 0.092580 14.286560
FVAR 0.19045 0.87736 0.78389 0.80647 0.71748
LA1   6   0.429131   0.291511   0.269793    11.00000     0.04326     0.03281 =
      0.04273     0.00569     0.00732     0.00970
NI1   5   0.466913   0.070237   0.207496    11.00000     0.04998     0.03185 =
      0.04646     0.00547     0.01027     0.01111
P1    4   0.260806   0.052351   0.145793    11.00000     0.05182     0.03312 =
      0.04697     0.00265     0.00470     0.00652
P2    4   0.511687   0.071636   0.314979    11.00000     0.06031     0.03571 =
      0.04913     0.00985     0.00946     0.01497
N1    3   0.251844   0.281103   0.169975    11.00000     0.05701     0.03253 =
      0.04733     0.00698     0.00364     0.01084
N2    3   0.383348   0.247085   0.375647    11.00000     0.06418     0.04138 =
      0.04804     0.01030     0.01584     0.01658
N3    3   0.627376   0.295447   0.216852    11.00000     0.04628     0.04374 =
      0.05457     0.01035     0.00984     0.00328
C1    1   0.294854   0.493791   0.270059    11.00000     0.05498     0.03477 =
      0.04944     0.00549     0.00311     0.01302
C45   1   0.117033   0.348934   0.082927    11.00000     0.07546     0.04696 =
      0.04145     0.00926     0.00290     0.01017
AFIX 43
H45   2   0.103976   0.279763   0.048288    11.00000    -1.20000
AFIX 0
C46   1   0.245443   0.449657   0.316168    11.00000     0.05658     0.04186 =
      0.04541     0.00561     0.00540     0.01751
AFIX 13
H46   2   0.151581   0.458972   0.318214    11.00000    -1.20000
AFIX 0
C47   1   0.327960   0.458370   0.380249    11.00000     0.05811     0.03550 =
      0.04240     0.00184     0.00752     0.01468
C2    1   0.195057   0.362989   0.149844    11.00000     0.05421     0.03875 =
      0.04599     0.01356     0.00542     0.00959
C3    1   0.569865  -0.144191   0.142644    11.00000     0.08450     0.03361 =
      0.05579     0.00548     0.01995     0.02607
AFIX 43
H3    2   0.647815  -0.106371   0.136500    11.00000    -1.20000
AFIX 0
C48   1   0.211896   0.472420   0.199071    11.00000     0.05183     0.03813 =
      0.04604     0.00899     0.00676     0.00609
C4    1   0.593985   0.187945   0.192769    11.00000     0.05137     0.04656 =
      0.05747     0.01238     0.01257     0.01264
AFIX 13
H4    2   0.650138   0.152057   0.161690    11.00000    -1.20000
AFIX 0
C5    1   0.429190   0.550701   0.289200    11.00000     0.06310     0.03743 =
      0.06630     0.01194     0.00624     0.00552
C6    1   0.274342   0.401995   0.425814    11.00000     0.06298     0.04997 =
      0.04163     0.00493     0.00665     0.01905
C7    1   0.219277   0.170825   0.115538    11.00000     0.07496     0.03858 =
      0.05100     0.00409    -0.00423     0.01403
C8    1   0.154010   0.557846   0.182596    11.00000     0.08193     0.04197 =
      0.06132     0.01489     0.00370     0.01600
AFIX 43
H8    2   0.166323   0.627892   0.216317    11.00000    -1.20000
AFIX 0
N4    3   0.529869  -0.061597   0.166161    11.00000     0.07273     0.05990 =
      0.06781     0.01791     0.01444     0.01380
C9    1   0.193779   0.450759   0.469708    11.00000     0.07292     0.07024 =
      0.05092     0.00531     0.01688     0.02942
AFIX 43
H9    2   0.171809   0.520103   0.470146    11.00000    -1.20000
AFIX 0
C10   1   0.459923   0.515129   0.396981    11.00000     0.06877     0.04434 =
      0.05071     0.00124    -0.00300     0.00924
C11   1   0.735805   0.360456   0.198446    11.00000     0.06755     0.05754 =
      0.09686     0.01687     0.03280    -0.00531
C12   1   0.059752   0.435229   0.067693    11.00000     0.10101     0.06209 =
      0.05179     0.02421    -0.00678     0.01124
AFIX 43
H12   2   0.007818   0.421751   0.023459    11.00000    -1.20000
AFIX 0
C13   1   0.309749   0.295015   0.422039    11.00000     0.06323     0.04558 =
      0.04459     0.00749     0.01277     0.01168
C14   1   0.176305   0.296506   0.511406    11.00000     0.08322     0.08490 =
      0.05702     0.01267     0.02513     0.01204
AFIX 43
H14   2   0.142530   0.260316   0.539297    11.00000    -1.20000
AFIX 0
C15   1   0.690462   0.135345   0.364957    11.00000     0.06610     0.05823 =
      0.06250     0.02067    -0.00221     0.01037
AFIX 13
H15   2   0.703478   0.116014   0.407557    11.00000    -1.20000
AFIX 0
PART 1
C16   1   0.106297   0.017122   0.177717    21.00000     0.04823     0.07794 =
      0.07365     0.01923     0.00473    -0.00047
AFIX 13
H16   2   0.118827  -0.055520   0.182860    21.00000    -1.20000
AFIX 0
PART 0
C17   1   0.513033   0.561325   0.353056    11.00000     0.06726     0.04477 =
      0.06413     0.00791    -0.00282    -0.00309
C18   1   0.715921   0.263953   0.386363    11.00000     0.07486     0.06825 =
      0.07440     0.01660     0.00322     0.00068
AFIX 137
H18A  2   0.808190   0.292941   0.411692    11.00000    -1.50000
H18B  2   0.655256   0.293420   0.415043    11.00000    -1.50000
H18C  2   0.700224   0.285853   0.345729    11.00000    -1.50000
AFIX 0
C19   1   0.416427   0.139390   0.380865    11.00000     0.07999     0.04689 =
      0.04924     0.01549     0.02040     0.02219
AFIX 23
H19A  2   0.470515   0.151944   0.426812    11.00000    -1.20000
H19B  2   0.332945   0.088940   0.374877    11.00000    -1.20000
AFIX 0
C20   1   0.077566   0.539954   0.116069    11.00000     0.11103     0.05368 =
      0.06199     0.02382    -0.00062     0.02817
AFIX 43
H20   2   0.039850   0.597375   0.104904    11.00000    -1.20000
AFIX 0
C21   1   0.258218   0.245686   0.468480    11.00000     0.08322     0.06176 =
      0.05328     0.01745     0.02348     0.01472
AFIX 43
H21   2   0.280569   0.177209   0.469823    11.00000    -1.20000
AFIX 0
PART 1
C22   1   0.218688  -0.057570   0.057584    21.00000     0.07105     0.04662 =
      0.05759    -0.00181    -0.00046     0.00699
AFIX 13
H22   2   0.133443  -0.049162   0.030492    21.00000    -1.20000
AFIX 0
PART 0
C23   1   0.144810   0.399823   0.512969    11.00000     0.07744     0.09340 =
      0.06186     0.01580     0.03085     0.03410
AFIX 43
H23   2   0.091850   0.434647   0.542404    11.00000    -1.20000
AFIX 0
C24   1   0.496170  -0.073176   0.322288    11.00000     0.10316     0.04181 =
      0.07736     0.02271     0.01722     0.02116
AFIX 13
H24   2   0.565845  -0.105688   0.299510    11.00000    -1.20000
AFIX 0
PART 1
C25   1   0.331422  -0.041383   0.018143    21.00000     0.08379     0.06147 =
      0.05925     0.00369     0.00820     0.01540
AFIX 137
H25A  2   0.309376  -0.097730  -0.026850    21.00000    -1.50000
H25B  2   0.416962  -0.048014   0.043672    21.00000    -1.50000
H25C  2   0.337586   0.031597   0.013237    21.00000    -1.50000
AFIX 0
PART 0
C26   1   0.359720  -0.142242   0.283965    11.00000     0.10762     0.05240 =
      0.10402     0.02516     0.01613    -0.00653
AFIX 137
H26A  2   0.354920  -0.215348   0.288638    11.00000    -1.50000
H26B  2   0.346597  -0.149326   0.235870    11.00000    -1.50000
H26C  2   0.290140  -0.106342   0.302812    11.00000    -1.50000
AFIX 0
C27   1   0.606772  -0.253680   0.114300    11.00000     0.11070     0.04834 =
      0.09339     0.00777     0.03081     0.03810
PART 1
C28   1   1.094557   0.715564   0.372676    51.00000     0.13263     0.08492 =
      0.10576     0.01468     0.00184     0.03483
AFIX 43
H28   2   1.108228   0.641591   0.362104    51.00000    -1.20000
AFIX 0
PART 0
C29   1   0.791936   0.087139   0.322838    11.00000     0.06169     0.10741 =
      0.11392     0.02978     0.00856     0.03517
AFIX 137
H29A  2   0.882833   0.120351   0.348934    11.00000    -1.50000
H29B  2   0.776949   0.103426   0.280227    11.00000    -1.50000
H29C  2   0.779722   0.007381   0.312915    11.00000    -1.50000
AFIX 0
PART 1
C30   1   0.195066  -0.176309   0.063432    21.00000     0.08883     0.05075 =
      0.07610     0.00088     0.00471     0.00833
AFIX 137
H30A  2   0.173702  -0.231340   0.017984    21.00000    -1.50000
H30B  2   0.120960  -0.183240   0.085611    21.00000    -1.50000
H30C  2   0.275875  -0.188043   0.090331    21.00000    -1.50000
AFIX 0
C31   1   0.862053   0.307092   0.195845    31.00000     0.06248     0.09353 =
      0.12525     0.03595     0.03909     0.00761
AFIX 137
H31A  2   0.928919   0.352455   0.183725    31.00000    -1.50000
H31B  2   0.839065   0.233511   0.161777    31.00000    -1.50000
H31C  2   0.898127   0.301515   0.240386    31.00000    -1.50000
AFIX 0
C32   1   0.101076   0.101743   0.244751    21.00000     0.06135     0.09145 =
      0.08165     0.02312     0.01346     0.00817
AFIX 137
H32A  2   0.020308   0.079960   0.258850    21.00000    -1.50000
H32B  2   0.100019   0.173825   0.239008    21.00000    -1.50000
H32C  2   0.179545   0.105832   0.279479    21.00000    -1.50000
AFIX 0
C33   1  -0.033674  -0.001099   0.127438    21.00000     0.05687     0.10280 =
      0.09550     0.02779     0.00923     0.00250
AFIX 137
H33A  2  -0.105048  -0.018575   0.149139    21.00000    -1.50000
H33B  2  -0.038458  -0.061994   0.085766    21.00000    -1.50000
H33C  2  -0.043949   0.066020   0.116361    21.00000    -1.50000
AFIX 0
C34   1   1.055350   0.937010   0.405062    51.00000     0.13301     0.08462 =
      0.10642     0.01053    -0.00542     0.03380
AFIX 43
H34   2   1.041772   1.011001   0.415561    51.00000    -1.20000
AFIX 0
PART 0
C35   1   0.538737  -0.080988   0.393974    11.00000     0.17742     0.07306 =
      0.09686     0.05026     0.01073     0.02729
AFIX 137
H35A  2   0.526390  -0.158342   0.391212    11.00000    -1.50000
H35B  2   0.484131  -0.041933   0.423247    11.00000    -1.50000
H35C  2   0.632702  -0.047646   0.412953    11.00000    -1.50000
AFIX 0
PART 1
C36   1   0.766491   0.480454   0.247477    31.00000     0.10206     0.06904 =
      0.11315     0.02176     0.04177    -0.00481
AFIX 137
H36A  2   0.836867   0.522774   0.235598    31.00000    -1.50000
H36B  2   0.796084   0.481154   0.294124    31.00000    -1.50000
H36C  2   0.685946   0.513389   0.243744    31.00000    -1.50000
AFIX 0
C37   1   0.647498  -0.257884   0.048222    41.00000     0.11278     0.07856 =
      0.10144     0.01520     0.03395     0.03106
AFIX 137
H37A  2   0.672544  -0.329351   0.028141    41.00000    -1.50000
H37B  2   0.723503  -0.199356   0.057408    41.00000    -1.50000
H37C  2   0.572646  -0.247649   0.016608    41.00000    -1.50000
AFIX 0
C38   1   0.678165   0.368636   0.126462    31.00000     0.09391     0.08000 =
      0.10056     0.03175     0.03681    -0.00133
AFIX 137
H38A  2   0.746733   0.410573   0.113240    31.00000    -1.50000
H38B  2   0.600841   0.405802   0.128398    31.00000    -1.50000
H38C  2   0.651124   0.294613   0.093042    31.00000    -1.50000
AFIX 0
C39   1   1.143842   0.905372   0.451568    51.00000     0.13640     0.09088 =
      0.10479     0.01514    -0.00294     0.03561
AFIX 43
H39   2   1.190726   0.957646   0.493734    51.00000    -1.20000
AFIX 0
C40   1   1.007010   0.748097   0.326979    51.00000     0.13283     0.08919 =
      0.11110     0.01468     0.00044     0.03592
AFIX 43
H40   2   0.960415   0.695665   0.284811    51.00000    -1.20000
AFIX 0
C41   1   0.483844  -0.345578   0.099489    41.00000     0.13069     0.05730 =
      0.11373     0.01466     0.03735     0.03234
AFIX 137
H41A  2   0.508371  -0.417736   0.080797    41.00000    -1.50000
H41B  2   0.410805  -0.335803   0.066680    41.00000    -1.50000
H41C  2   0.455278  -0.340816   0.141703    41.00000    -1.50000
AFIX 0
C42   1   0.987622   0.857974   0.343131    51.00000     0.13613     0.08839 =
      0.10765     0.01212    -0.00171     0.03597
AFIX 43
H42   2   0.927899   0.878897   0.311690    51.00000    -1.20000
AFIX 0
C43   1   1.161417   0.795152   0.434417    51.00000     0.13627     0.09195 =
      0.10645     0.01857     0.00136     0.03669
AFIX 43
H43   2   1.220761   0.773852   0.465815    51.00000    -1.20000
AFIX 0
C44   1   0.716228  -0.265329   0.169218    41.00000     0.13314     0.07668 =
      0.10776     0.02639     0.03509     0.04995
AFIX 137
H44A  2   0.743936  -0.336759   0.152719    41.00000    -1.50000
H44B  2   0.682153  -0.260189   0.210044    41.00000    -1.50000
H44C  2   0.792706  -0.206501   0.180068    41.00000    -1.50000
AFIX 0
PART 2
C22B  1   0.263199  -0.043316   0.057279   -21.00000     0.07252     0.04801 =
      0.05911     0.00020     0.00260     0.00755
AFIX 13
H22B  2   0.197023  -0.023475   0.024383   -21.00000    -1.20000
AFIX 0
C25B  1   0.391255  -0.023556   0.029292   -21.00000     0.07414     0.05203 =
      0.05698    -0.00032     0.00231     0.00867
AFIX 137
H0    2   0.380498  -0.077231  -0.016015   -21.00000    -1.50000
H1    2   0.469222  -0.032030   0.059812   -21.00000    -1.50000
H2    2   0.403694   0.050884   0.026671   -21.00000    -1.50000
AFIX 0
C30B  1   0.217783  -0.165546   0.052621   -21.00000     0.07466     0.04817 =
      0.06321    -0.00109     0.00126     0.00582
AFIX 137
H5    2   0.218757  -0.214944   0.007501   -21.00000    -1.50000
H6    2   0.127437  -0.174454   0.060337   -21.00000    -1.50000
H7    2   0.278844  -0.183435   0.087122   -21.00000    -1.50000
AFIX 0
C16B  1   0.085754   0.000413   0.153110   -21.00000     0.05340     0.07832 =
      0.07657     0.01869     0.00749     0.00274
C33B  1  -0.035291  -0.078957   0.097266   -21.00000     0.05647     0.08806 =
      0.08414     0.02294     0.00939     0.00313
AFIX 137
HA    2  -0.110977  -0.088934   0.117919   -21.00000    -1.50000
HB    2  -0.009543  -0.150294   0.077637   -21.00000    -1.50000
HC    2  -0.060597  -0.046981   0.061528   -21.00000    -1.50000
AFIX 0
C32B  1   0.097739  -0.007796   0.226178   -21.00000     0.05143     0.08292 =
      0.07751     0.02059     0.00739     0.00250
AFIX 137
HD    2   0.009568  -0.034238   0.231622   -21.00000    -1.50000
HE    2   0.133540   0.064883   0.260061   -21.00000    -1.50000
HF    2   0.157585  -0.059154   0.232429   -21.00000    -1.50000
AFIX 0
C36B  1   0.819162   0.441576   0.268792   -31.00000     0.08605     0.06315 =
      0.10769     0.01909     0.03657    -0.00840
AFIX 137
HG    2   0.892729   0.487630   0.261586   -31.00000    -1.50000
HH    2   0.854985   0.399366   0.297002   -31.00000    -1.50000
HI    2   0.761747   0.488311   0.291650   -31.00000    -1.50000
AFIX 0
C38B  1   0.673007   0.459354   0.187395   -31.00000     0.09269     0.07358 =
      0.10640     0.02699     0.03883    -0.00212
AFIX 137
HJ    2   0.737254   0.506708   0.175084   -31.00000    -1.50000
HK    2   0.649745   0.501630   0.229322   -31.00000    -1.50000
HL    2   0.592579   0.431842   0.150837   -31.00000    -1.50000
AFIX 0
C31B  1   0.832001   0.288164   0.165571   -31.00000     0.05359     0.07516 =
      0.10631     0.02344     0.03283     0.00069
AFIX 137
HM    2   0.900256   0.334022   0.154613   -31.00000    -1.50000
HN    2   0.781687   0.230527   0.123966   -31.00000    -1.50000
HO    2   0.874713   0.254362   0.197405   -31.00000    -1.50000
AFIX 0
C44B  1   0.752500  -0.257720   0.143474   -41.00000     0.12089     0.06734 =
      0.09955     0.01976     0.03361     0.04657
AFIX 137
HP    2   0.771269  -0.331516   0.123092   -41.00000    -1.50000
HQ    2   0.767124  -0.240221   0.192743   -41.00000    -1.50000
HR    2   0.811861  -0.203994   0.133156   -41.00000    -1.50000
AFIX 0
C37B  1   0.580211  -0.288053   0.036794   -41.00000     0.11472     0.06317 =
      0.10251     0.01225     0.03258     0.03185
AFIX 137
HS    2   0.604896  -0.360315   0.018675   -41.00000    -1.50000
HT    2   0.633291  -0.233964   0.023762   -41.00000    -1.50000
HU    2   0.485459  -0.291862   0.018379   -41.00000    -1.50000
AFIX 0
C41B  1   0.522969  -0.326056   0.142947   -41.00000     0.13091     0.05758 =
      0.10475     0.01546     0.03583     0.04000
AFIX 137
HV    2   0.539869  -0.401526   0.127149   -41.00000    -1.50000
HW    2   0.428299  -0.325376   0.127326   -41.00000    -1.50000
HX    2   0.547341  -0.297382   0.192619   -41.00000    -1.50000
AFIX 0
C28B  1   1.178760   0.746228   0.406591   -51.00000     0.13427     0.08448 =
      0.10294     0.01304     0.00063     0.03387
AFIX 43
H28B  2   1.238253   0.697915   0.413415   -51.00000    -1.20000
AFIX 0
C43B  1   1.207725   0.859788   0.445596   -51.00000     0.13690     0.08829 =
      0.10412     0.01407     0.00038     0.03480
AFIX 43
H43B  2   1.287392   0.890288   0.479572   -51.00000    -1.20000
AFIX 0
C39B  1   1.113341   0.925777   0.431906   -51.00000     0.13684     0.08943 =
      0.10760     0.01469    -0.00083     0.03564
AFIX 43
H39B  2   1.129943   1.001966   0.457091   -51.00000    -1.20000
AFIX 0
C34B  1   0.994642   0.879869   0.381249   -51.00000     0.13656     0.09020 =
      0.10854     0.01487    -0.00048     0.03644
AFIX 43
H34B  2   0.934676   0.927677   0.374096   -51.00000    -1.20000
AFIX 0
C42B  1   0.958996   0.767971   0.340557   -51.00000     0.13585     0.09026 =
      0.10912     0.01518     0.00127     0.03600
AFIX 43
H42B  2   0.879361   0.737188   0.306593   -51.00000    -1.20000
AFIX 0
C40B  1   1.058065   0.708317   0.357365   -51.00000     0.13307     0.08606 =
      0.10544     0.01423     0.00027     0.03457
AFIX 43
H40B  2   1.041087   0.632178   0.332033   -51.00000    -1.20000
AFIX 0
PART 0
HKLF 4
END
