TITL CrystalPilot n0037 in C 2 2 21
REM CrystalPilot node n0037 tool=refine
REM R1 = 0.0537 wR2 = 0.1683 GooF = 1.497
CELL 0.68914 15.79000 32.31000 11.86000 90.0000 90.0000 90.0000
ZERR 8 0 0 0 0 0 0
LATT -7
SYMM X,-Y,-Z
SYMM -X,Y,-Z+1/2
SYMM -X,-Y,Z+1/2
SFAC C H O Cu
UNIT 218.8 100.0 32.0 8.0

WGHT 0.100000 0.000000
FVAR 0.28071
CU1   4   0.068972   0.019827   0.363622    11.00000     0.03985     0.02064 =
      0.08320     0.00090    -0.01858    -0.00177
C1    1   0.071335   0.294518   0.210557    11.00000     0.03246     0.01738 =
      0.04992    -0.00415     0.01145    -0.00131
C2    1   0.000000   0.272257   0.250000    10.50000     0.03413     0.01500 =
      0.05026     0.00000     0.00533    -0.00000
C3    1   0.000000   0.405854   0.250000    10.50000     0.08497     0.00891 =
      0.04725     0.00000     0.00644    -0.00000
O1    3   0.158950   0.046650   0.449367    11.00000     0.05008     0.04838 =
      0.07772     0.00346    -0.02528    -0.02200
C4    1   0.000000   0.360099   0.250000    10.50000     0.04775     0.01565 =
      0.04839     0.00000     0.01024    -0.00000
C5    1   0.071590   0.337789   0.211643    11.00000     0.03817     0.02207 =
      0.04680    -0.00291     0.00648    -0.00500
O2    3   0.031837   0.076240   0.335537    11.00000     0.08604     0.02113 =
      0.09209     0.00265    -0.03064     0.00420
C6    1   0.000000   0.140508   0.250000    10.50000     0.05910     0.01680 =
      0.05691     0.00000    -0.01335    -0.00000
O3    3   0.000000  -0.002157   0.250000    10.50000     0.10724     0.02330 =
      0.15925     0.00000    -0.08444    -0.00000
C7    1   0.217749   0.218525   0.063208    11.00000     0.12309     0.11618 =
      0.04147     0.00240     0.01456     0.08356
AFIX 43
H7    2   0.216954   0.200423   0.002251    11.00000    -1.20000
AFIX 0
O4    3   0.122941   0.033797   0.628523    11.00000     0.05497     0.03570 =
      0.09095    -0.01251     0.02980    -0.02290
C8    1   0.148081   0.271242   0.175516    11.00000     0.04288     0.02943 =
      0.04729    -0.00727     0.01463     0.00152
C9    1   0.000000   0.226580   0.250000    10.50000     0.03912     0.01825 =
      0.05144     0.00000     0.00250    -0.00000
C10   1   0.229291   0.083067   0.592394    11.00000     0.03971     0.03288 =
      0.05754    -0.00015     0.00081    -0.01104
C11   1   0.144995   0.362669   0.168585    11.00000     0.04408     0.03645 =
      0.04958    -0.00305     0.00274    -0.01976
C12   1   0.168621   0.362167   0.054713    11.00000     0.04039     0.04370 =
      0.04873     0.00025     0.00581    -0.01540
AFIX 43
H12   2   0.143690   0.343552   0.004961    11.00000    -1.20000
AFIX 0
C13   1   0.121605   0.333366   0.724699    11.00000     0.13513     0.14828 =
      0.05727    -0.01088    -0.00742     0.09691
C14   1   0.146185   0.243110   0.085652    11.00000     0.09408     0.04814 =
      0.04137    -0.00481     0.01385     0.02658
AFIX 43
H14   2   0.097944   0.240707   0.041144    11.00000    -1.20000
AFIX 0
C15   1   0.206761   0.250004   0.718805    11.00000     0.05289     0.10869 =
      0.06794    -0.01059    -0.01007     0.03617
AFIX 43
H15   2   0.158379   0.247376   0.762947    11.00000    -1.20000
AFIX 0
C16   1   0.229760   0.389830   0.017072    11.00000     0.04502     0.03340 =
      0.05886    -0.00279     0.01384    -0.01127
AFIX 43
H16   2   0.243860   0.390457  -0.059043    11.00000    -1.20000
AFIX 0
C17   1   0.054361   0.161743   0.321448    11.00000     0.06079     0.02534 =
      0.07039    -0.00189    -0.02303     0.00239
AFIX 43
H17   2   0.089839   0.147344   0.370223    11.00000    -1.20000
AFIX 0
C18   1   0.055243   0.204510   0.319383    11.00000     0.04525     0.02182 =
      0.06219    -0.00052    -0.01420     0.00198
AFIX 43
H18   2   0.093240   0.218794   0.364940    11.00000    -1.20000
AFIX 0
C19   1   0.222359   0.274460   0.237219    11.00000     0.03605     0.06961 =
      0.07879    -0.00775     0.00640     0.01454
AFIX 43
H19   2   0.224822   0.294165   0.294281    11.00000    -1.20000
AFIX 0
C20   1   0.002703   0.427436   0.150310    11.00000     0.16923     0.02042 =
      0.04376     0.00255     0.01468     0.00166
AFIX 43
H20   2   0.001455   0.413192   0.082191    11.00000    -1.20000
AFIX 0
O5    3   0.030660   0.000000   0.000000    10.50000     0.03700     0.12866 =
      0.14943    -0.03253    -0.00000    -0.00000
C21   1   0.211341   0.279210   0.629657    11.00000     0.10267     0.14010 =
      0.05168    -0.00847    -0.02270     0.08901
C22   1   0.188094   0.388216   0.244471    11.00000     0.08057     0.05077 =
      0.04727    -0.00365    -0.00631    -0.03178
AFIX 43
H22   2   0.175627   0.386649   0.320990    11.00000    -1.20000
AFIX 0
C23   1   0.000000   0.492443   0.250000    10.50000     0.59482     0.01942 =
      0.05170     0.00000     0.07450    -0.00000
AFIX 43
H23   2   0.000000   0.521227   0.250000    10.50000    -1.20000
AFIX 0
C24   1   0.000000   0.092508   0.250000    10.50000     0.06260     0.02327 =
      0.07254     0.00000    -0.02004    -0.00000
C25   1   0.251151   0.084287   0.707437    11.00000     0.06431     0.04668 =
      0.05533    -0.00014     0.00388    -0.03005
AFIX 43
H25   2   0.224702   0.066603   0.758311    11.00000    -1.20000
AFIX 0
C26   1   0.007255   0.470073   0.150397    11.00000     0.41619     0.02249 =
      0.04688     0.00461     0.04169     0.01036
AFIX 43
H26   2   0.015306   0.484069   0.082719    11.00000    -1.20000
AFIX 0
C27   1   0.109615   0.316725   0.513674    11.00000     0.09678     0.13427 =
      0.19431     0.01606    -0.02704     0.04368
C29X  1   0.164686   0.052559   0.554009    11.00000     0.03953     0.02521 =
      0.07660    -0.00085     0.00751    -0.00851
C30X  1   0.130396   0.306689   0.616002    11.00000     0.14673     0.20691 =
      0.04758    -0.03703    -0.03503     0.13877
C32X  1   0.051273   0.282213   0.596824    11.00000     0.10946     0.30699 =
      0.13692    -0.14009    -0.08276     0.14196
C34X  1   0.174423   0.352010   0.525806    10.85000     0.20901     0.18683 =
      0.07203     0.05398     0.03982     0.15904
HKLF 4
END
