TITL CrystalPilot n0152 in P -1
REM CrystalPilot node n0152 tool=add_atoms_from_difference_map
REM R1 = 0.0655 wR2 = 0.1994 GooF = 0.925
CELL 0.71073 10.15540 12.70750 20.80080 107.6910 100.3150 96.2330
ZERR 2 0.00170 0.00210 0.00440 0.0030 0.0030 0.0020
LATT 1
SFAC C H N P Ni La
UNIT 95.3 148.4 8.0 4.0 2.0 2.0

DFIX 1.3900 0.010 C28 C40
DFIX 1.3900 0.010 C40 C42
DFIX 1.3900 0.010 C42 C34
DFIX 1.3900 0.010 C34 C39
DFIX 1.3900 0.010 C39 C43
DFIX 1.3900 0.010 C43 C28
DFIX 1.3900 0.010 C28B C40B
DFIX 1.3900 0.010 C40B C42B
DFIX 1.3900 0.010 C42B C34B
DFIX 1.3900 0.010 C34B C39B
DFIX 1.3900 0.010 C39B C43B
DFIX 1.3900 0.010 C43B C28B
FLAT 0.01 C28 C40 C42 C34 C39 C43
FLAT 0.01 C28B C40B C42B C34B C39B C43B
SADI 0.020 P1 C22 P1 C16 P1 C22B P1 C16B
SADI 0.020 C22 C25 C22 C30 C16 C33 C16 C32 C22B C25B C22B C30B C16B C33B =
 C16B C32B
SIMU 0.010 0.020 P1 C22 C25 C30 C16 C33 C32 C22B C25B C30B C16B C33B C32B
SADI 0.020 C11 C36 C11 C38 C11 C31 C11 C36B C11 C38B C11 C31B
SIMU 0.010 0.020 C11 C36 C38 C31 C36B C38B C31B
SADI 0.020 C27 C44 C27 C37 C27 C41 C27 C44B C27 C37B C27 C41B
SIMU 0.010 0.020 C27 C44 C37 C41 C44B C37B C41B
SIMU 0.010 0.020 C28 C40 C42 C34 C39 C43 C28B C40B C42B C34B C39B C43B

WGHT 0.069430 14.286560
FVAR 0.19088 0.87736 0.78389 0.80647 0.71748
LA1   6   0.429132   0.291511   0.269793    11.00000     0.04333     0.03289 =
      0.04283     0.00571     0.00734     0.00972
NI1   5   0.466914   0.070240   0.207493    11.00000     0.05003     0.03190 =
      0.04660     0.00553     0.01027     0.01114
P1    4   0.260806   0.052353   0.145794    11.00000     0.05190     0.03325 =
      0.04714     0.00269     0.00461     0.00658
P2    4   0.511687   0.071637   0.314980    11.00000     0.06028     0.03582 =
      0.04917     0.00989     0.00950     0.01499
N1    3   0.251844   0.281103   0.169976    11.00000     0.05668     0.03267 =
      0.04754     0.00688     0.00334     0.01080
N2    3   0.383348   0.247086   0.375646    11.00000     0.06457     0.04124 =
      0.04833     0.01032     0.01620     0.01623
N3    3   0.627376   0.295447   0.216851    11.00000     0.04625     0.04348 =
      0.05478     0.01065     0.00968     0.00343
C1    1   0.294854   0.493791   0.270059    11.00000     0.05514     0.03500 =
      0.04917     0.00586     0.00356     0.01294
C45   1   0.117033   0.348934   0.082926    11.00000     0.07559     0.04724 =
      0.04187     0.00928     0.00314     0.01075
AFIX 43
H45   2   0.103978   0.279763   0.048288    11.00000    -1.20000
AFIX 0
C46   1   0.245444   0.449657   0.316168    11.00000     0.05504     0.04184 =
      0.04647     0.00516     0.00491     0.01623
AFIX 43
H46   2   0.155594   0.413424   0.304454    11.00000    -1.20000
AFIX 0
C47   1   0.327960   0.458369   0.380249    11.00000     0.05798     0.03555 =
      0.04222     0.00182     0.00769     0.01459
C2    1   0.195057   0.362990   0.149844    11.00000     0.05452     0.03857 =
      0.04544     0.01329     0.00544     0.00969
C3    1   0.569865  -0.144191   0.142644    11.00000     0.08436     0.03377 =
      0.05603     0.00590     0.02079     0.02606
C48   1   0.211896   0.472420   0.199070    11.00000     0.05165     0.03818 =
      0.04630     0.00931     0.00680     0.00587
C4    1   0.593985   0.187945   0.192769    11.00000     0.05129     0.04661 =
      0.05752     0.01258     0.01230     0.01271
C5    1   0.429190   0.550701   0.289199    11.00000     0.06343     0.03797 =
      0.06522     0.01378     0.00772     0.00451
AFIX 43
H5    2   0.463332   0.581889   0.259193    11.00000    -1.20000
AFIX 0
C6    1   0.274342   0.401995   0.425814    11.00000     0.06320     0.04987 =
      0.04171     0.00481     0.00667     0.01888
C7    1   0.219276   0.170825   0.115539    11.00000     0.07441     0.04026 =
      0.04941     0.00460    -0.00235     0.01450
AFIX 23
H7A   2   0.127279   0.164153   0.089931    11.00000    -1.20000
H7B   2   0.279583   0.172689   0.084477    11.00000    -1.20000
AFIX 0
C8    1   0.154010   0.557846   0.182596    11.00000     0.08172     0.04237 =
      0.06135     0.01508     0.00434     0.01634
AFIX 43
H8    2   0.166323   0.627893   0.216317    11.00000    -1.20000
AFIX 0
N4    3   0.529868  -0.061597   0.166162    11.00000     0.07294     0.06012 =
      0.06695     0.01727     0.01458     0.01379
C9    1   0.193779   0.450759   0.469708    11.00000     0.07306     0.07006 =
      0.05081     0.00508     0.01737     0.02956
AFIX 43
H9    2   0.171809   0.520103   0.470146    11.00000    -1.20000
AFIX 0
C10   1   0.459923   0.515129   0.396981    11.00000     0.06869     0.04595 =
      0.04917     0.00073    -0.00491     0.00950
AFIX 43
H10   2   0.515087   0.522491   0.439475    11.00000    -1.20000
AFIX 0
C11   1   0.735805   0.360456   0.198447    11.00000     0.06730     0.05761 =
      0.09720     0.01699     0.03256    -0.00470
C12   1   0.059752   0.435229   0.067692    11.00000     0.10103     0.06226 =
      0.05209     0.02468    -0.00659     0.01107
AFIX 43
H12   2   0.007817   0.421751   0.023460    11.00000    -1.20000
AFIX 0
C13   1   0.309749   0.295014   0.422040    11.00000     0.06313     0.04543 =
      0.04425     0.00731     0.01228     0.01179
C14   1   0.176305   0.296506   0.511406    11.00000     0.08314     0.08470 =
      0.05715     0.01317     0.02444     0.01212
AFIX 43
H14   2   0.142529   0.260315   0.539297    11.00000    -1.20000
AFIX 0
C15   1   0.690462   0.135345   0.364958    11.00000     0.06683     0.05915 =
      0.06122     0.02244    -0.00255     0.01016
AFIX 13
H15   2   0.706648   0.116580   0.407726    11.00000    -1.20000
AFIX 0
PART 1
C16   1   0.106297   0.017123   0.177718    21.00000     0.04879     0.07717 =
      0.07411     0.02055     0.00468     0.00029
AFIX 13
H16   2   0.130012  -0.047387   0.190869    21.00000    -1.20000
AFIX 0
PART 0
C17   1   0.513033   0.561325   0.353056    11.00000     0.06651     0.04464 =
      0.06482     0.00812    -0.00337    -0.00442
AFIX 43
H17   2   0.602471   0.598695   0.365510    11.00000    -1.20000
AFIX 0
C18   1   0.715921   0.263953   0.386363    11.00000     0.07517     0.06847 =
      0.07342     0.01610     0.00227     0.00032
AFIX 137
H18A  2   0.810412   0.292476   0.407435    11.00000    -1.50000
H18B  2   0.662068   0.293829   0.418857    11.00000    -1.50000
H18C  2   0.691191   0.285908   0.346172    11.00000    -1.50000
AFIX 0
C19   1   0.416427   0.139390   0.380865    11.00000     0.07951     0.04748 =
      0.04825     0.01545     0.01897     0.02039
AFIX 23
H19A  2   0.463940   0.152534   0.428152    11.00000    -1.20000
H19B  2   0.331661   0.088700   0.372058    11.00000    -1.20000
AFIX 0
C20   1   0.077566   0.539954   0.116069    11.00000     0.11086     0.05356 =
      0.06190     0.02344    -0.00021     0.02865
AFIX 43
H20   2   0.039851   0.597375   0.104903    11.00000    -1.20000
AFIX 0
C21   1   0.258218   0.245686   0.468479    11.00000     0.08306     0.06155 =
      0.05234     0.01661     0.02313     0.01509
AFIX 43
H21   2   0.280570   0.177209   0.469824    11.00000    -1.20000
AFIX 0
PART 1
C22   1   0.218688  -0.057570   0.057585    21.00000     0.07090     0.04664 =
      0.05762    -0.00189    -0.00132     0.00737
AFIX 13
H22   2   0.138041  -0.048818   0.027169    21.00000    -1.20000
AFIX 0
PART 0
C23   1   0.144810   0.399824   0.512969    11.00000     0.07744     0.09380 =
      0.06177     0.01483     0.02966     0.03459
AFIX 43
H23   2   0.091851   0.434647   0.542405    11.00000    -1.20000
AFIX 0
C24   1   0.496170  -0.073176   0.322288    11.00000     0.10255     0.04229 =
      0.07611     0.02126     0.01996     0.02278
AFIX 13
H24   2   0.558188  -0.107615   0.294430    11.00000    -1.20000
AFIX 0
PART 1
C25   1   0.331422  -0.041382   0.018143    21.00000     0.08351     0.06132 =
      0.05937     0.00341     0.00770     0.01554
AFIX 137
H25A  2   0.315915  -0.103343  -0.024168    21.00000    -1.50000
H25B  2   0.418581  -0.037934   0.046465    21.00000    -1.50000
H25C  2   0.329429   0.027132   0.007761    21.00000    -1.50000
AFIX 0
PART 0
C26   1   0.359720  -0.142242   0.283965    11.00000     0.10736     0.05220 =
      0.10370     0.02522     0.01798    -0.00671
AFIX 137
H26A  2   0.357576  -0.217230   0.285340    11.00000    -1.50000
H26B  2   0.343392  -0.144057   0.236701    11.00000    -1.50000
H26C  2   0.290689  -0.109729   0.305280    11.00000    -1.50000
AFIX 0
C27   1   0.606773  -0.253679   0.114299    11.00000     0.11110     0.04794 =
      0.09371     0.00794     0.03114     0.03830
PART 1
C28   1   1.094557   0.715564   0.372676    51.00000     0.13279     0.08520 =
      0.10519     0.01492     0.00202     0.03481
AFIX 43
H28   2   1.108228   0.641591   0.362104    51.00000    -1.20000
AFIX 0
PART 0
C29   1   0.791936   0.087139   0.322837    11.00000     0.06154     0.10777 =
      0.11139     0.02930     0.00958     0.03530
AFIX 137
H29A  2   0.882382   0.125317   0.347028    11.00000    -1.50000
H29B  2   0.771572   0.097249   0.278441    11.00000    -1.50000
H29C  2   0.785549   0.008591   0.316606    11.00000    -1.50000
AFIX 0
PART 1
C30   1   0.195066  -0.176309   0.063431    21.00000     0.08823     0.05146 =
      0.07604     0.00083     0.00381     0.00831
AFIX 137
H30A  2   0.190580  -0.231325   0.019299    21.00000    -1.50000
H30B  2   0.111217  -0.188183   0.077498    21.00000    -1.50000
H30C  2   0.268738  -0.183114   0.097128    21.00000    -1.50000
AFIX 0
C31   1   0.862053   0.307092   0.195844    31.00000     0.06276     0.09293 =
      0.12568     0.03534     0.03917     0.00758
AFIX 137
H31A  2   0.928919   0.352456   0.183725    31.00000    -1.50000
H31B  2   0.839065   0.233512   0.161777    31.00000    -1.50000
H31C  2   0.898127   0.301515   0.240386    31.00000    -1.50000
AFIX 0
C32   1   0.101076   0.101743   0.244750    21.00000     0.06108     0.09125 =
      0.08191     0.02366     0.01338     0.00858
AFIX 137
H32A  2   0.028032   0.074560   0.262333    21.00000    -1.50000
H32B  2   0.086328   0.171000   0.237458    21.00000    -1.50000
H32C  2   0.185510   0.114059   0.277546    21.00000    -1.50000
AFIX 0
C33   1  -0.033674  -0.001098   0.127438    21.00000     0.05744     0.10215 =
      0.09570     0.02849     0.00967     0.00330
AFIX 137
H33A  2  -0.105110  -0.016870   0.149536    21.00000    -1.50000
H33B  2  -0.039276  -0.063102   0.086210    21.00000    -1.50000
H33C  2  -0.043067   0.065425   0.115519    21.00000    -1.50000
AFIX 0
C34   1   1.055350   0.937010   0.405062    51.00000     0.13289     0.08439 =
      0.10619     0.01073    -0.00555     0.03375
AFIX 43
H34   2   1.041773   1.011001   0.415561    51.00000    -1.20000
AFIX 0
PART 0
C35   1   0.538737  -0.080988   0.393974    11.00000     0.17759     0.07328 =
      0.09845     0.05062     0.01048     0.02663
AFIX 137
H35A  2   0.526534  -0.158347   0.391202    11.00000    -1.50000
H35B  2   0.484027  -0.042041   0.423225    11.00000    -1.50000
H35C  2   0.632660  -0.047533   0.412985    11.00000    -1.50000
AFIX 0
PART 1
C36   1   0.766491   0.480454   0.247477    31.00000     0.10036     0.06953 =
      0.11405     0.02245     0.04110    -0.00393
AFIX 137
H36A  2   0.836867   0.522775   0.235598    31.00000    -1.50000
H36B  2   0.796084   0.481154   0.294124    31.00000    -1.50000
H36C  2   0.685946   0.513389   0.243745    31.00000    -1.50000
AFIX 0
C37   1   0.647498  -0.257884   0.048222    41.00000     0.11375     0.07862 =
      0.10266     0.01571     0.03438     0.03148
AFIX 137
H37A  2   0.672545  -0.329352   0.028141    41.00000    -1.50000
H37B  2   0.723503  -0.199356   0.057408    41.00000    -1.50000
H37C  2   0.572647  -0.247650   0.016608    41.00000    -1.50000
AFIX 0
C38   1   0.678165   0.368636   0.126461    31.00000     0.09339     0.07953 =
      0.10137     0.03207     0.03648    -0.00067
AFIX 137
H38A  2   0.746733   0.410574   0.113240    31.00000    -1.50000
H38B  2   0.600841   0.405802   0.128398    31.00000    -1.50000
H38C  2   0.651124   0.294614   0.093042    31.00000    -1.50000
AFIX 0
C39   1   1.143842   0.905372   0.451568    51.00000     0.13627     0.09078 =
      0.10401     0.01532    -0.00300     0.03570
AFIX 43
H39   2   1.190725   0.957645   0.493734    51.00000    -1.20000
AFIX 0
C40   1   1.007010   0.748097   0.326978    51.00000     0.13289     0.08904 =
      0.11087     0.01467     0.00031     0.03619
AFIX 43
H40   2   0.960414   0.695665   0.284811    51.00000    -1.20000
AFIX 0
C41   1   0.483844  -0.345579   0.099489    41.00000     0.12979     0.05787 =
      0.11508     0.01544     0.03802     0.03328
AFIX 137
H41A  2   0.508371  -0.417736   0.080798    41.00000    -1.50000
H41B  2   0.410805  -0.335803   0.066680    41.00000    -1.50000
H41C  2   0.455277  -0.340815   0.141703    41.00000    -1.50000
AFIX 0
C42   1   0.987621   0.857974   0.343131    51.00000     0.13630     0.08867 =
      0.10745     0.01240    -0.00197     0.03599
AFIX 43
H42   2   0.927899   0.878897   0.311690    51.00000    -1.20000
AFIX 0
C43   1   1.161417   0.795152   0.434418    51.00000     0.13640     0.09182 =
      0.10615     0.01870     0.00166     0.03681
AFIX 43
H43   2   1.220760   0.773851   0.465815    51.00000    -1.20000
AFIX 0
C44   1   0.716228  -0.265329   0.169218    41.00000     0.13195     0.07609 =
      0.10769     0.02631     0.03495     0.04934
AFIX 137
H44A  2   0.743935  -0.336760   0.152719    41.00000    -1.50000
H44B  2   0.682153  -0.260188   0.210043    41.00000    -1.50000
H44C  2   0.792706  -0.206501   0.180068    41.00000    -1.50000
AFIX 0
PART 2
C22B  1   0.263199  -0.043316   0.057279   -21.00000     0.07302     0.04832 =
      0.05931     0.00020     0.00242     0.00801
AFIX 13
H22B  2   0.211389  -0.016493   0.022778   -21.00000    -1.20000
AFIX 0
C25B  1   0.391255  -0.023556   0.029292   -21.00000     0.07436     0.05223 =
      0.05701    -0.00042     0.00198     0.00887
AFIX 137
H0    2   0.385603  -0.082841  -0.013266   -21.00000    -1.50000
H1    2   0.470506  -0.022538   0.062647   -21.00000    -1.50000
H2    2   0.397305   0.047001   0.021087   -21.00000    -1.50000
AFIX 0
C30B  1   0.217783  -0.165546   0.052620   -21.00000     0.07514     0.04839 =
      0.06330    -0.00119     0.00102     0.00618
AFIX 137
H3    2   0.235356  -0.215493   0.011294   -21.00000    -1.50000
H4    2   0.122280  -0.178256   0.051344   -21.00000    -1.50000
H6    2   0.267403  -0.179084   0.092321   -21.00000    -1.50000
AFIX 0
C16B  1   0.085754   0.000413   0.153110   -21.00000     0.05371     0.07855 =
      0.07691     0.01975     0.00764     0.00342
AFIX 13
H16B  2   0.048945   0.068330   0.152430   -21.00000    -1.20000
AFIX 0
C33B  1  -0.035291  -0.078957   0.097266   -21.00000     0.05633     0.08799 =
      0.08456     0.02403     0.00939     0.00370
AFIX 137
H7    2  -0.108017  -0.094508   0.118644   -21.00000    -1.50000
HA    2  -0.007059  -0.147804   0.074644   -21.00000    -1.50000
HB    2  -0.066041  -0.043897   0.063796   -21.00000    -1.50000
AFIX 0
C32B  1   0.097739  -0.007796   0.226178   -21.00000     0.05182     0.08319 =
      0.07792     0.02146     0.00771     0.00306
AFIX 137
HC    2   0.009585  -0.034326   0.231602   -21.00000    -1.50000
HD    2   0.133434   0.064901   0.260060   -21.00000    -1.50000
HE    2   0.157674  -0.059082   0.232449   -21.00000    -1.50000
AFIX 0
C36B  1   0.819162   0.441576   0.268792   -31.00000     0.08548     0.06317 =
      0.10854     0.01941     0.03647    -0.00687
AFIX 137
HF    2   0.892729   0.487630   0.261586   -31.00000    -1.50000
HG    2   0.854985   0.399366   0.297002   -31.00000    -1.50000
HH    2   0.761746   0.488311   0.291649   -31.00000    -1.50000
AFIX 0
C38B  1   0.673007   0.459354   0.187395   -31.00000     0.09182     0.07323 =
      0.10710     0.02726     0.03863    -0.00129
AFIX 137
HI    2   0.737254   0.506708   0.175084   -31.00000    -1.50000
HJ    2   0.649744   0.501630   0.229322   -31.00000    -1.50000
HK    2   0.592579   0.431842   0.150837   -31.00000    -1.50000
AFIX 0
C31B  1   0.832001   0.288164   0.165570   -31.00000     0.05465     0.07497 =
      0.10678     0.02318     0.03266     0.00032
AFIX 137
HL    2   0.900256   0.334021   0.154613   -31.00000    -1.50000
HM    2   0.781688   0.230527   0.123967   -31.00000    -1.50000
HN    2   0.874713   0.254362   0.197406   -31.00000    -1.50000
AFIX 0
C44B  1   0.752500  -0.257720   0.143474   -41.00000     0.12077     0.06628 =
      0.09979     0.01954     0.03375     0.04599
AFIX 137
HO    2   0.771269  -0.331516   0.123092   -41.00000    -1.50000
HP    2   0.767125  -0.240220   0.192742   -41.00000    -1.50000
HQ    2   0.811861  -0.203994   0.133155   -41.00000    -1.50000
AFIX 0
C37B  1   0.580211  -0.288053   0.036794   -41.00000     0.11558     0.06292 =
      0.10340     0.01259     0.03331     0.03257
AFIX 137
HR    2   0.604896  -0.360315   0.018675   -41.00000    -1.50000
HS    2   0.633291  -0.233964   0.023763   -41.00000    -1.50000
HT    2   0.485459  -0.291862   0.018379   -41.00000    -1.50000
AFIX 0
C41B  1   0.522969  -0.326056   0.142947   -41.00000     0.12978     0.05810 =
      0.10518     0.01591     0.03609     0.04038
AFIX 137
HU    2   0.539870  -0.401526   0.127150   -41.00000    -1.50000
HV    2   0.428299  -0.325376   0.127326   -41.00000    -1.50000
HW    2   0.547341  -0.297381   0.192619   -41.00000    -1.50000
AFIX 0
C28B  1   1.178760   0.746228   0.406591   -51.00000     0.13429     0.08448 =
      0.10281     0.01325     0.00077     0.03393
AFIX 43
H28B  2   1.238253   0.697915   0.413416   -51.00000    -1.20000
AFIX 0
C43B  1   1.207725   0.859788   0.445596   -51.00000     0.13692     0.08821 =
      0.10362     0.01418     0.00050     0.03494
AFIX 43
H43B  2   1.287391   0.890288   0.479572   -51.00000    -1.20000
AFIX 0
C39B  1   1.113341   0.925777   0.431906   -51.00000     0.13682     0.08942 =
      0.10728     0.01490    -0.00082     0.03574
AFIX 43
H39B  2   1.129943   1.001967   0.457091   -51.00000    -1.20000
AFIX 0
C34B  1   0.994642   0.879869   0.381249   -51.00000     0.13657     0.09034 =
      0.10814     0.01511    -0.00061     0.03653
AFIX 43
H34B  2   0.934676   0.927677   0.374096   -51.00000    -1.20000
AFIX 0
C42B  1   0.958996   0.767971   0.340557   -51.00000     0.13592     0.09034 =
      0.10875     0.01538     0.00116     0.03607
AFIX 43
H42B  2   0.879361   0.737187   0.306593   -51.00000    -1.20000
AFIX 0
C40B  1   1.058065   0.708317   0.357365   -51.00000     0.13311     0.08598 =
      0.10483     0.01432     0.00025     0.03460
AFIX 43
H40B  2   1.041088   0.632178   0.332032   -51.00000    -1.20000
AFIX 0
PART 0
HKLF 4
END
