TITL CrystalPilot n0028 in I 41/a m d :2
REM CrystalPilot node n0028 tool=refine
REM R1 = 0.0619 wR2 = 0.204 GooF = 1.028
CELL 1.54178 15.85170 15.85170 57.50380 90.0000 90.0000 90.0000
ZERR 4 0.00010 0.00010 0.00130 0.0000 0.0000 0.0000
LATT 2
SYMM -Y+1/4,X+3/4,Z+1/4
SYMM Y+1/4,-X+1/4,Z+3/4
SYMM X,-Y,-Z
SYMM -X,Y+1/2,-Z
SYMM -X,-Y+1/2,Z
SYMM Y+1/4,X+3/4,-Z+1/4
SYMM -Y+1/4,-X+1/4,-Z+3/4
SFAC C H O Zr
UNIT 272.0 144.0 128.0 24.0

WGHT 0.142330 13.550750
FVAR 0.12851
FE01  4   0.000000   0.250000   0.331568    10.25000     0.05458     0.03140 =
      0.03552     0.00000    -0.00000    -0.00000
ZR02  4   0.110236   0.360236   0.375000    10.50000     0.06226     0.06226 =
      0.04250    -0.00293     0.00293    -0.02910
O004  3   0.126259   0.250000   0.350570    10.50000     0.04707     0.07631 =
      0.05034     0.00000     0.01167    -0.00000
O005  3   0.089444   0.335389   0.437121    11.00000     0.06196     0.10371 =
      0.06949    -0.02198    -0.01727    -0.01422
O006  3   0.161175   0.404963   0.407948    11.00000     0.10462     0.14831 =
      0.05908    -0.01324    -0.00968    -0.06223
O007  3   0.074568   0.500860   0.375141    10.50000     0.37133     0.07317 =
      0.05427    -0.02209     0.05477    -0.14664
C008  1   0.217739   0.386676   0.468447    11.00000     0.05811     0.12032 =
      0.06765    -0.02194    -0.00659    -0.00383
AFIX 43
H008  2   0.176797   0.349852   0.474027    11.00000    -1.20000
AFIX 0
C009  1   0.214134   0.415191   0.445849    11.00000     0.06065     0.10463 =
      0.06792    -0.02463    -0.00505    -0.01150
C00A  1   0.148677   0.383731   0.429213    11.00000     0.06446     0.10443 =
      0.06398    -0.01336    -0.00448    -0.02086
C00B  1   0.500000   0.472160   0.477635    10.50000     0.05069     0.14606 =
      0.08445    -0.05751    -0.00000    -0.00000
AFIX 43
H00B  2   0.500000   0.451315   0.462517    10.50000    -1.20000
AFIX 0
C00D  1   0.345071   0.468345   0.474608    11.00000     0.05088     0.12625 =
      0.07451    -0.04446    -0.00393    -0.00210
C00E  1   0.422391   0.487282   0.488603    11.00000     0.05254     0.12593 =
      0.07155    -0.04179    -0.00183    -0.00439
C00F  1   0.272587   0.473323   0.437603    11.00000     0.07814     0.13620 =
      0.07886    -0.01220    -0.00986    -0.03846
AFIX 43
H00F  2   0.267722   0.495506   0.422691    11.00000    -1.20000
AFIX 0
O5X   3   0.000000   0.156560   0.356585    10.50000     0.06100     0.03153 =
      0.04075     0.00246    -0.00000    -0.00000
C8X   1   0.282456   0.413042   0.482775    11.00000     0.06295     0.13369 =
      0.06862    -0.02733    -0.00405    -0.00009
AFIX 43
H8X   2   0.284639   0.393924   0.498054    11.00000    -1.20000
AFIX 0
C9X   1   0.338549   0.497677   0.452108    11.00000     0.07182     0.13672 =
      0.08608    -0.01563    -0.01183    -0.02656
AFIX 43
H9X   2   0.379248   0.534670   0.446477    11.00000    -1.20000
AFIX 0
O1W   3   0.096463   0.497544   0.374023    10.50000     0.35281     0.05679 =
      0.08735     0.00705     0.06224    -0.00552
HKLF 4
END
