TITL CrystalPilot n0019 in P 21 21 21
REM CrystalPilot node n0019 tool=refine
REM R1 = 0.0436 wR2 = 0.1377 GooF = 0.944
CELL 0.68890 5.42807 8.12883 12.05269 90.0000 90.0000 90.0000
ZERR 4 0.00000 0.00000 0.00000 0.0000 0.0000 0.0000
LATT -1
SYMM X+1/2,-Y+1/2,-Z
SYMM -X,Y+1/2,-Z+1/2
SYMM -X+1/2,-Y,Z+1/2
SFAC C H N O S
UNIT 12.0 28.0 4.0 8.0 4.0

WGHT 0.100000 0.000000
FVAR 1.16215
C1    5   0.118770   0.413505   0.524128    11.00000     0.02986     0.01856 =
      0.01659     0.00343     0.00004    -0.00382
C2    4   0.207467   0.216576   0.118827    11.00000     0.01057     0.02121 =
      0.02102     0.00576    -0.00016    -0.00254
C3    4   0.230842   0.009075   0.240037    11.00000     0.01706     0.02651 =
      0.02876     0.01302    -0.00318     0.00113
C4    3   0.215288   0.266493   0.874442    11.00000     0.00899     0.01704 =
      0.01710    -0.00131    -0.00092     0.00089
C5    1   0.166458   0.587035   0.323636    11.00000     0.01129     0.01704 =
      0.01317     0.00041     0.00111     0.00299
C6    1   0.242657   0.429837   0.384269    11.00000     0.01751     0.01654 =
      0.02039     0.00218    -0.00039     0.00384
C7    1   0.115021   0.105434   0.179042    11.00000     0.01118     0.01682 =
      0.01511     0.00186    -0.00087    -0.00057
H1X   2   0.255951   0.255425   0.945607    11.00000     0.02160
H2X   2   0.053491   0.283444   0.870886    11.00000     0.02160
H3X   2   0.417117   0.422436   0.401015    11.00000     0.02150
H4X   2   0.206327   0.337231   0.336327    11.00000     0.02150
H5X   2   0.223865   0.577183   0.246746    11.00000     0.01660
H6X   2   0.224563   0.513928   0.579410    11.00000     0.03240
H7X   2   0.261797   0.177287   0.837067    11.00000     0.02160
HKLF 4
END
