TITL CrystalPilot n0021 in P 21 21 21
REM CrystalPilot node n0021 tool=edit_atoms
REM R1 = 0.0429 wR2 = 0.121 GooF = 1.009
CELL 0.68890 5.42807 8.12883 12.05269 90.0000 90.0000 90.0000
ZERR 4 0.00000 0.00000 0.00000 0.0000 0.0000 0.0000
LATT -1
SYMM X+1/2,-Y+1/2,-Z
SYMM -X,Y+1/2,-Z+1/2
SYMM -X+1/2,-Y,Z+1/2
SFAC C H N O S
UNIT 12.0 28.0 4.0 8.0 4.0

WGHT 0.068900 0.111710
FVAR 1.16348
C1    5   0.118823   0.413498   0.524108    11.00000     0.02996     0.01860 =
      0.01660     0.00344     0.00001    -0.00387
C2    4   0.207512   0.216557   0.118817    11.00000     0.01060     0.02147 =
      0.02057     0.00584    -0.00003    -0.00238
C3    4   0.230991   0.009017   0.240028    11.00000     0.01703     0.02625 =
      0.02879     0.01296    -0.00319     0.00113
C4    3   0.215300   0.266566   0.874472    11.00000     0.00887     0.01703 =
      0.01705    -0.00128    -0.00085     0.00081
C5    1   0.166498   0.586899   0.323491    11.00000     0.01109     0.01694 =
      0.01317     0.00026     0.00111     0.00283
C6    1   0.242695   0.429898   0.384186    11.00000     0.01728     0.01662 =
      0.01991     0.00170    -0.00037     0.00385
C7    1   0.114924   0.105427   0.179092    11.00000     0.01122     0.01667 =
      0.01490     0.00140    -0.00061    -0.00056
H1X   2   0.254400   0.256645   0.945869    11.00000     0.02145
H2X   2   0.053562   0.283690   0.870777    11.00000     0.02145
H3X   2   0.417452   0.422224   0.400178    11.00000     0.02148
H4X   2   0.204469   0.335956   0.337647    11.00000     0.02148
H5X   2   0.222785   0.577929   0.246470    11.00000     0.01644
H6X   2   0.226190   0.514338   0.578417    11.00000     0.03255
H7X   2   0.262393   0.177551   0.837076    11.00000     0.02145
HKLF 4
END
