TITL CrystalPilot n0141 in P -1
REM CrystalPilot node n0141 tool=edit_atoms
REM R1 = 0.0682 wR2 = 0.215 GooF = 0.985
CELL 0.71073 10.15540 12.70750 20.80080 107.6910 100.3150 96.2330
ZERR 2 0.00170 0.00210 0.00440 0.0030 0.0030 0.0020
LATT 1
SFAC C H N Si P
UNIT 96.0 112.0 8.0 4.0 4.0

DFIX 1.3900 0.010 C28 C40
DFIX 1.3900 0.010 C40 C42
DFIX 1.3900 0.010 C42 C34
DFIX 1.3900 0.010 C34 C39
DFIX 1.3900 0.010 C39 C43
DFIX 1.3900 0.010 C43 C28
DFIX 1.3900 0.010 C28B C40B
DFIX 1.3900 0.010 C40B C42B
DFIX 1.3900 0.010 C42B C34B
DFIX 1.3900 0.010 C34B C39B
DFIX 1.3900 0.010 C39B C43B
DFIX 1.3900 0.010 C43B C28B
FLAT 0.01 C28 C40 C42 C34 C39 C43
FLAT 0.01 C28B C40B C42B C34B C39B C43B
SADI 0.020 P1 C22 P1 C16 P1 C22B P1 C16B
SADI 0.020 C22 C25 C22 C30 C16 C33 C16 C32 C22B C25B C22B C30B C16B C33B =
 C16B C32B
SIMU 0.010 0.020 P1 C22 C25 C30 C16 C33 C32 C22B C25B C30B C16B C33B C32B
SADI 0.020 C11 C36 C11 C38 C11 C31 C11 C36B C11 C38B C11 C31B
SIMU 0.010 0.020 C11 C36 C38 C31 C36B C38B C31B
SADI 0.020 C27 C44 C27 C37 C27 C41 C27 C44B C27 C37B C27 C41B
SIMU 0.010 0.020 C27 C44 C37 C41 C44B C37B C41B
SIMU 0.010 0.020 C28 C40 C42 C34 C39 C43 C28B C40B C42B C34B C39B C43B

WGHT 0.092580 14.286560
FVAR 0.19045 0.87736 0.78389 0.80647 0.71748
LA1   4   0.429131   0.291511   0.269793    11.00000     0.04326     0.03281 =
      0.04273     0.00569     0.00732     0.00970
NI1   4   0.466913   0.070237   0.207496    11.00000     0.04998     0.03185 =
      0.04646     0.00547     0.01027     0.01111
P1    5   0.227634   0.044601   0.135079    11.00000     0.05182     0.03312 =
      0.04697     0.00265     0.00470     0.00652
P2    5   0.517051   0.070069   0.324604    11.00000     0.06031     0.03571 =
      0.04913     0.00985     0.00946     0.01497
N1    3   0.251844   0.281103   0.169975    11.00000     0.05701     0.03253 =
      0.04733     0.00698     0.00364     0.01084
N2    3   0.383348   0.247085   0.375647    11.00000     0.06418     0.04138 =
      0.04804     0.01030     0.01584     0.01658
N3    3   0.627376   0.295447   0.216852    11.00000     0.04628     0.04374 =
      0.05457     0.01035     0.00984     0.00328
C1    1   0.294854   0.493791   0.270059    11.00000     0.05498     0.03477 =
      0.04944     0.00549     0.00311     0.01302
C45   1   0.117033   0.348934   0.082927    11.00000     0.07546     0.04696 =
      0.04145     0.00926     0.00290     0.01017
AFIX 43
H45   2   0.103975   0.279761   0.048295    11.00000    -1.20000
AFIX 0
C46   1   0.245443   0.449657   0.316168    11.00000     0.05658     0.04186 =
      0.04541     0.00561     0.00540     0.01751
C47   1   0.327960   0.458370   0.380249    11.00000     0.05811     0.03550 =
      0.04240     0.00184     0.00752     0.01468
C2    1   0.195057   0.362989   0.149844    11.00000     0.05421     0.03875 =
      0.04599     0.01356     0.00542     0.00959
C3    1   0.569865  -0.144191   0.142644    11.00000     0.08450     0.03361 =
      0.05579     0.00548     0.01995     0.02607
C48   1   0.211896   0.472420   0.199071    11.00000     0.05183     0.03813 =
      0.04604     0.00899     0.00676     0.00609
C4    1   0.593985   0.187945   0.192769    11.00000     0.05137     0.04656 =
      0.05747     0.01238     0.01257     0.01264
C5    1   0.429190   0.550701   0.289200    11.00000     0.06310     0.03743 =
      0.06630     0.01194     0.00624     0.00552
C6    1   0.274342   0.401995   0.425814    11.00000     0.06298     0.04997 =
      0.04163     0.00493     0.00665     0.01905
C7    1   0.219277   0.170825   0.115538    11.00000     0.07496     0.03858 =
      0.05100     0.00409    -0.00423     0.01403
C8    1   0.154010   0.557846   0.182596    11.00000     0.08193     0.04197 =
      0.06132     0.01489     0.00370     0.01600
AFIX 43
H8    2   0.166330   0.627894   0.216310    11.00000    -1.20000
AFIX 0
N4    3   0.529869  -0.061597   0.166161    11.00000     0.07273     0.05990 =
      0.06781     0.01791     0.01444     0.01380
C9    1   0.193779   0.450759   0.469708    11.00000     0.07292     0.07024 =
      0.05092     0.00531     0.01688     0.02942
AFIX 43
H9    2   0.171808   0.520100   0.470144    11.00000    -1.20000
AFIX 0
C10   1   0.459923   0.515129   0.396981    11.00000     0.06877     0.04434 =
      0.05071     0.00124    -0.00300     0.00924
C11   1   0.735805   0.360456   0.198446    11.00000     0.06755     0.05754 =
      0.09686     0.01687     0.03280    -0.00531
C12   1   0.059752   0.435229   0.067693    11.00000     0.10101     0.06209 =
      0.05179     0.02421    -0.00678     0.01124
AFIX 43
H12   2   0.007817   0.421753   0.023460    11.00000    -1.20000
AFIX 0
C13   1   0.309749   0.295015   0.422039    11.00000     0.06323     0.04558 =
      0.04459     0.00749     0.01277     0.01168
C14   1   0.176305   0.296506   0.511406    11.00000     0.08322     0.08490 =
      0.05702     0.01267     0.02513     0.01204
AFIX 43
H14   2   0.142530   0.260311   0.539294    11.00000    -1.20000
AFIX 0
C15   1   0.690462   0.135345   0.364957    11.00000     0.06610     0.05823 =
      0.06250     0.02067    -0.00221     0.01037
PART 1
C16   1   0.106297   0.017122   0.177717    21.00000     0.04823     0.07794 =
      0.07365     0.01923     0.00473    -0.00047
PART 0
C17   1   0.513033   0.561325   0.353056    11.00000     0.06726     0.04477 =
      0.06413     0.00791    -0.00282    -0.00309
C18   1   0.715921   0.263953   0.386363    11.00000     0.07486     0.06825 =
      0.07440     0.01660     0.00322     0.00068
AFIX 137
H18A  2   0.808194   0.292940   0.411683    11.00000    -1.50000
H18B  2   0.655266   0.293417   0.415051    11.00000    -1.50000
H18C  2   0.700203   0.285864   0.345732    11.00000    -1.50000
AFIX 0
C19   1   0.416427   0.139390   0.380865    11.00000     0.07999     0.04689 =
      0.04924     0.01549     0.02040     0.02219
C20   1   0.077566   0.539954   0.116069    11.00000     0.11103     0.05368 =
      0.06199     0.02382    -0.00062     0.02817
AFIX 43
H20   2   0.039848   0.597374   0.104907    11.00000    -1.20000
AFIX 0
C21   1   0.258218   0.245686   0.468480    11.00000     0.08322     0.06176 =
      0.05328     0.01745     0.02348     0.01472
AFIX 43
H21   2   0.280567   0.177209   0.469819    11.00000    -1.20000
AFIX 0
PART 1
C22   1   0.218688  -0.057570   0.057584    21.00000     0.07105     0.04662 =
      0.05759    -0.00181    -0.00046     0.00699
PART 0
C23   1   0.144810   0.399823   0.512969    11.00000     0.07744     0.09340 =
      0.06186     0.01580     0.03085     0.03410
AFIX 43
H23   2   0.091855   0.434646   0.542406    11.00000    -1.20000
AFIX 0
C24   1   0.496170  -0.073176   0.322288    11.00000     0.10316     0.04181 =
      0.07736     0.02271     0.01722     0.02116
PART 1
C25   1   0.331422  -0.041383   0.018143    21.00000     0.08379     0.06147 =
      0.05925     0.00369     0.00820     0.01540
AFIX 137
H25A  2   0.309373  -0.097729  -0.026852    21.00000    -1.50000
H25B  2   0.416965  -0.048014   0.043668    21.00000    -1.50000
H25C  2   0.337583   0.031598   0.013237    21.00000    -1.50000
AFIX 0
PART 0
C26   1   0.359720  -0.142242   0.283965    11.00000     0.10762     0.05240 =
      0.10402     0.02516     0.01613    -0.00653
AFIX 137
H26A  2   0.354918  -0.215350   0.288642    11.00000    -1.50000
H26B  2   0.346608  -0.149330   0.235874    11.00000    -1.50000
H26C  2   0.290135  -0.106345   0.302810    11.00000    -1.50000
AFIX 0
C27   1   0.606772  -0.253680   0.114300    11.00000     0.11070     0.04834 =
      0.09339     0.00777     0.03081     0.03810
PART 1
C28   1   1.094557   0.715564   0.372676    51.00000     0.13263     0.08492 =
      0.10576     0.01468     0.00184     0.03483
AFIX 43
H28   2   1.108228   0.641593   0.362101    51.00000    -1.20000
AFIX 0
PART 0
C29   1   0.791936   0.087139   0.322838    11.00000     0.06169     0.10741 =
      0.11392     0.02978     0.00856     0.03517
AFIX 137
H29A  2   0.882834   0.120359   0.348933    11.00000    -1.50000
H29B  2   0.776950   0.103407   0.280221    11.00000    -1.50000
H29C  2   0.779731   0.007383   0.312925    11.00000    -1.50000
AFIX 0
PART 1
C30   1   0.195066  -0.176309   0.063432    21.00000     0.08883     0.05075 =
      0.07610     0.00088     0.00471     0.00833
AFIX 137
H30A  2   0.173698  -0.231340   0.017986    21.00000    -1.50000
H30B  2   0.120959  -0.183237   0.085614    21.00000    -1.50000
H30C  2   0.275874  -0.188045   0.090333    21.00000    -1.50000
AFIX 0
C31   1   0.862053   0.307092   0.195845    31.00000     0.06248     0.09353 =
      0.12525     0.03595     0.03909     0.00761
AFIX 137
H31A  2   0.928917   0.352451   0.183724    31.00000    -1.50000
H31B  2   0.839064   0.233508   0.161784    31.00000    -1.50000
H31C  2   0.898127   0.301525   0.240390    31.00000    -1.50000
AFIX 0
C32   1   0.101076   0.101743   0.244751    21.00000     0.06135     0.09145 =
      0.08165     0.02312     0.01346     0.00817
AFIX 137
H32A  2   0.020298   0.079968   0.258848    21.00000    -1.50000
H32B  2   0.100036   0.173836   0.239018    21.00000    -1.50000
H32C  2   0.179534   0.105822   0.279483    21.00000    -1.50000
AFIX 0
C33   1  -0.033674  -0.001099   0.127438    21.00000     0.05687     0.10280 =
      0.09550     0.02779     0.00923     0.00250
AFIX 137
H33A  2  -0.105040  -0.018572   0.149146    21.00000    -1.50000
H33B  2  -0.038463  -0.062001   0.085768    21.00000    -1.50000
H33C  2  -0.043953   0.066014   0.116358    21.00000    -1.50000
AFIX 0
C34   1   1.055350   0.937010   0.405062    51.00000     0.13301     0.08462 =
      0.10642     0.01053    -0.00542     0.03380
AFIX 43
H34   2   1.041769   1.010999   0.415563    51.00000    -1.20000
AFIX 0
PART 0
C35   1   0.538737  -0.080988   0.393974    11.00000     0.17742     0.07306 =
      0.09686     0.05026     0.01073     0.02729
AFIX 137
H35A  2   0.526384  -0.158341   0.391213    11.00000    -1.50000
H35B  2   0.484134  -0.041930   0.423250    11.00000    -1.50000
H35C  2   0.632700  -0.047648   0.412952    11.00000    -1.50000
AFIX 0
PART 1
C36   1   0.766491   0.480454   0.247477    31.00000     0.10206     0.06904 =
      0.11315     0.02176     0.04177    -0.00481
AFIX 137
H36A  2   0.836859   0.522781   0.235600    31.00000    -1.50000
H36B  2   0.796092   0.481150   0.294125    31.00000    -1.50000
H36C  2   0.685941   0.513386   0.243751    31.00000    -1.50000
AFIX 0
C37   1   0.647498  -0.257884   0.048222    41.00000     0.11278     0.07856 =
      0.10144     0.01520     0.03395     0.03106
AFIX 137
H37A  2   0.672546  -0.329354   0.028142    41.00000    -1.50000
H37B  2   0.723505  -0.199359   0.057409    41.00000    -1.50000
H37C  2   0.572648  -0.247653   0.016609    41.00000    -1.50000
AFIX 0
C38   1   0.678165   0.368636   0.126462    31.00000     0.09391     0.08000 =
      0.10056     0.03175     0.03681    -0.00133
AFIX 137
H38A  2   0.746732   0.410574   0.113243    31.00000    -1.50000
H38B  2   0.600842   0.405802   0.128403    31.00000    -1.50000
H38C  2   0.651124   0.294614   0.093046    31.00000    -1.50000
AFIX 0
C39   1   1.143842   0.905372   0.451568    51.00000     0.13640     0.09088 =
      0.10479     0.01514    -0.00294     0.03561
AFIX 43
H39   2   1.190724   0.957644   0.493735    51.00000    -1.20000
AFIX 0
C40   1   1.007010   0.748097   0.326979    51.00000     0.13283     0.08919 =
      0.11110     0.01468     0.00044     0.03592
AFIX 43
H40   2   0.960408   0.695663   0.284816    51.00000    -1.20000
AFIX 0
C41   1   0.483844  -0.345578   0.099489    41.00000     0.13069     0.05730 =
      0.11373     0.01466     0.03735     0.03234
AFIX 137
H41A  2   0.508371  -0.417731   0.080802    41.00000    -1.50000
H41B  2   0.410812  -0.335797   0.066678    41.00000    -1.50000
H41C  2   0.455265  -0.340811   0.141702    41.00000    -1.50000
AFIX 0
C42   1   0.987622   0.857974   0.343131    51.00000     0.13613     0.08839 =
      0.10765     0.01212    -0.00171     0.03597
AFIX 43
H42   2   0.927905   0.878896   0.311690    51.00000    -1.20000
AFIX 0
C43   1   1.161417   0.795152   0.434417    51.00000     0.13627     0.09195 =
      0.10645     0.01857     0.00136     0.03669
AFIX 43
H43   2   1.220764   0.773853   0.465811    51.00000    -1.20000
AFIX 0
C44   1   0.716228  -0.265329   0.169218    41.00000     0.13314     0.07668 =
      0.10776     0.02639     0.03509     0.04995
AFIX 137
H44A  2   0.743931  -0.336760   0.152721    41.00000    -1.50000
H44B  2   0.682161  -0.260182   0.210049    41.00000    -1.50000
H44C  2   0.792705  -0.206502   0.180064    41.00000    -1.50000
AFIX 0
PART 2
C22B  1   0.263199  -0.043316   0.057279   -21.00000     0.07252     0.04801 =
      0.05911     0.00020     0.00260     0.00755
C25B  1   0.391255  -0.023556   0.029292   -21.00000     0.07414     0.05203 =
      0.05698    -0.00032     0.00231     0.00867
AFIX 137
H0    2   0.380494  -0.077227  -0.016017   -21.00000    -1.50000
H1    2   0.469221  -0.032037   0.059810   -21.00000    -1.50000
H2    2   0.403698   0.050886   0.026675   -21.00000    -1.50000
AFIX 0
C30B  1   0.217783  -0.165546   0.052621   -21.00000     0.07466     0.04817 =
      0.06321    -0.00109     0.00126     0.00582
AFIX 137
H3    2   0.218751  -0.214945   0.007502   -21.00000    -1.50000
H4    2   0.127440  -0.174452   0.060342   -21.00000    -1.50000
H5    2   0.278848  -0.183436   0.087122   -21.00000    -1.50000
AFIX 0
C16B  1   0.085754   0.000413   0.153110   -21.00000     0.05340     0.07832 =
      0.07657     0.01869     0.00749     0.00274
C33B  1  -0.035291  -0.078957   0.097266   -21.00000     0.05647     0.08806 =
      0.08414     0.02294     0.00939     0.00313
AFIX 137
H6    2  -0.110979  -0.088926   0.117919   -21.00000    -1.50000
H7    2  -0.009547  -0.150297   0.077641   -21.00000    -1.50000
HA    2  -0.060591  -0.046986   0.061525   -21.00000    -1.50000
AFIX 0
C32B  1   0.097739  -0.007796   0.226178   -21.00000     0.05143     0.08292 =
      0.07751     0.02059     0.00739     0.00250
AFIX 137
HB    2   0.009567  -0.034234   0.231623   -21.00000    -1.50000
HC    2   0.133543   0.064883   0.260061   -21.00000    -1.50000
HD    2   0.157582  -0.059155   0.232428   -21.00000    -1.50000
AFIX 0
C36B  1   0.819162   0.441576   0.268792   -31.00000     0.08605     0.06315 =
      0.10769     0.01909     0.03657    -0.00840
AFIX 137
HE    2   0.892726   0.487634   0.261586   -31.00000    -1.50000
HF    2   0.854987   0.399365   0.297000   -31.00000    -1.50000
HG    2   0.761743   0.488307   0.291649   -31.00000    -1.50000
AFIX 0
C38B  1   0.673007   0.459354   0.187395   -31.00000     0.09269     0.07358 =
      0.10640     0.02699     0.03883    -0.00212
AFIX 137
HH    2   0.737250   0.506706   0.175081   -31.00000    -1.50000
HI    2   0.649754   0.501632   0.229324   -31.00000    -1.50000
HJ    2   0.592573   0.431843   0.150841   -31.00000    -1.50000
AFIX 0
C31B  1   0.832001   0.288164   0.165571   -31.00000     0.05359     0.07516 =
      0.10631     0.02344     0.03283     0.00069
AFIX 137
HK    2   0.900251   0.334018   0.154610   -31.00000    -1.50000
HL    2   0.781688   0.230520   0.123972   -31.00000    -1.50000
HM    2   0.874719   0.254372   0.197412   -31.00000    -1.50000
AFIX 0
C44B  1   0.752500  -0.257720   0.143474   -41.00000     0.12089     0.06734 =
      0.09955     0.01976     0.03361     0.04657
AFIX 137
HN    2   0.771266  -0.331518   0.123094   -41.00000    -1.50000
HO    2   0.767137  -0.240213   0.192744   -41.00000    -1.50000
HP    2   0.811854  -0.203999   0.133149   -41.00000    -1.50000
AFIX 0
C37B  1   0.580211  -0.288053   0.036794   -41.00000     0.11472     0.06317 =
      0.10251     0.01225     0.03258     0.03185
AFIX 137
HQ    2   0.604893  -0.360316   0.018673   -41.00000    -1.50000
HR    2   0.633297  -0.233963   0.023765   -41.00000    -1.50000
HS    2   0.485461  -0.291858   0.018377   -41.00000    -1.50000
AFIX 0
C41B  1   0.522969  -0.326056   0.142947   -41.00000     0.13091     0.05758 =
      0.10475     0.01546     0.03583     0.04000
AFIX 137
HT    2   0.539873  -0.401524   0.127149   -41.00000    -1.50000
HU    2   0.428300  -0.325377   0.127322   -41.00000    -1.50000
HV    2   0.547334  -0.297383   0.192619   -41.00000    -1.50000
AFIX 0
C28B  1   1.178760   0.746228   0.406591   -51.00000     0.13427     0.08448 =
      0.10294     0.01304     0.00063     0.03387
AFIX 43
H28B  2   1.238252   0.697915   0.413416   -51.00000    -1.20000
AFIX 0
C43B  1   1.207725   0.859788   0.445596   -51.00000     0.13690     0.08829 =
      0.10412     0.01407     0.00038     0.03480
AFIX 43
H43B  2   1.287393   0.890290   0.479571   -51.00000    -1.20000
AFIX 0
C39B  1   1.113341   0.925777   0.431906   -51.00000     0.13684     0.08943 =
      0.10760     0.01469    -0.00083     0.03564
AFIX 43
H39B  2   1.129942   1.001966   0.457093   -51.00000    -1.20000
AFIX 0
C34B  1   0.994642   0.879869   0.381249   -51.00000     0.13656     0.09020 =
      0.10854     0.01487    -0.00048     0.03644
AFIX 43
H34B  2   0.934675   0.927677   0.374097   -51.00000    -1.20000
AFIX 0
C42B  1   0.958996   0.767971   0.340557   -51.00000     0.13585     0.09026 =
      0.10912     0.01518     0.00127     0.03600
AFIX 43
H42B  2   0.879363   0.737187   0.306592   -51.00000    -1.20000
AFIX 0
C40B  1   1.058065   0.708317   0.357365   -51.00000     0.13307     0.08606 =
      0.10544     0.01423     0.00027     0.03457
AFIX 43
H40B  2   1.041086   0.632179   0.332033   -51.00000    -1.20000
AFIX 0
PART 0
HKLF 4
END
