TITL engine coarse solution (charge flipping + isotropic) in C 2 2 21
REM coarse R1 = 0.2285
CELL 0.68914 15.79000 32.31000 11.86000 90.0000 90.0000 90.0000
ZERR 8 0 0 0 0 0 0
LATT -7
SYMM X,-Y,-Z
SYMM -X,Y,-Z+1/2
SYMM -X,-Y,Z+1/2
SFAC C O Cu
UNIT 240.0 32.0 8.0

WGHT 0.100000 0.000000
FVAR 1.00000
Cu1   3   0.068955   0.019811   0.363446    11.00000     0.04533
C1    1   0.070559   0.294473   0.211287    11.00000     0.03379
C2    1   0.000000   0.272696   0.250000    10.50000     0.03276
C3    1   0.000000   0.404539   0.250000    10.50000     0.04959
O1    2   0.157862   0.046722   0.447411    11.00000     0.04876
C4    1   0.000000   0.360480   0.250000    10.50000     0.03352
C5    1   0.070325   0.337450   0.210544    11.00000     0.03125
O2    2   0.031634   0.075583   0.336273    11.00000     0.06153
C6    1   0.000000   0.141902   0.250000    10.50000     0.05033
O3    2   0.000000  -0.004050   0.250000    10.50000     0.08577
C7    1   0.220308   0.217576   0.063063    11.00000     0.06199
O4    2   0.125978   0.032102   0.630012    11.00000     0.05493
C8    1   0.149461   0.270952   0.175088    11.00000     0.04087
C9    1   0.000000   0.227257   0.250000    10.50000     0.04169
C10   1   0.230441   0.083508   0.591089    11.00000     0.04414
C11   1   0.145293   0.361882   0.171322    11.00000     0.03633
C12   1   0.169653   0.362407   0.054829    11.00000     0.04555
C13   1   0.115227   0.330216   0.726163    11.00000     0.08596
C14   1   0.146073   0.242705   0.085161    11.00000     0.05120
C15   1   0.206419   0.250442   0.719530    11.00000     0.06705
C16   1   0.228868   0.389747   0.019699    11.00000     0.04419
C17   1   0.054289   0.162157   0.321075    11.00000     0.04482
C18   1   0.055042   0.205040   0.320995    11.00000     0.04445
C19   1   0.223077   0.275067   0.237866    11.00000     0.06577
C20   1   0.008841   0.428003   0.148862    11.00000     0.05820
O5    2   0.027439   0.000000   0.000000    10.50000     0.10820
C21   1   0.208192   0.277983   0.630966    11.00000     0.06745
C22   1   0.191003   0.387364   0.245186    11.00000     0.05527
C23   1   0.000000   0.492748   0.250000    10.50000     0.08106
C24   1   0.000000   0.092115   0.250000    10.50000     0.05804
C25   1   0.253373   0.083092   0.705345    11.00000     0.05106
C26   1   0.010297   0.469162   0.153626    11.00000     0.08679
C27   1   0.105428   0.317559   0.517666    11.00000     0.10619
C28   1   0.000000   0.463310   0.750000    10.50000     0.16379
C29X  1   0.166660   0.053957   0.556192    11.00000     0.04464
C30X  1   0.120408   0.300562   0.619677    11.00000     0.07930
C31X  1   0.034285   0.444185   0.849093    11.00000     0.11515
C32X  1   0.044991   0.273791   0.605349    11.00000     0.10808
C33X  1   0.073158   0.291787   0.551378    11.00000     0.15338
C34X  1   0.174491   0.350649   0.525488    11.00000     0.13139
HKLF 4
END
