TITL CrystalPilot n0159 in P -1
REM CrystalPilot node n0159 tool=run_shelxl
REM R1 = 0.065 wR2 = 0.1997 GooF = 0.953
CELL 0.71073 10.15540 12.70750 20.80080 107.6910 100.3150 96.2330
ZERR 2 0.00170 0.00210 0.00440 0.0030 0.0030 0.0020
LATT 1
SFAC C H N P Ni La
UNIT 96.0 135.7 8.0 4.0 2.0 2.0

DFIX 1.3900 0.010 C28 C40
DFIX 1.3900 0.010 C40 C42
DFIX 1.3900 0.010 C42 C34
DFIX 1.3900 0.010 C34 C39
DFIX 1.3900 0.010 C39 C43
DFIX 1.3900 0.010 C43 C28
DFIX 1.3900 0.010 C28B C40B
DFIX 1.3900 0.010 C40B C42B
DFIX 1.3900 0.010 C42B C34B
DFIX 1.3900 0.010 C34B C39B
DFIX 1.3900 0.010 C39B C43B
DFIX 1.3900 0.010 C43B C28B
FLAT 0.01 C28 C40 C42 C34 C39 C43
FLAT 0.01 C28B C40B C42B C34B C39B C43B
SADI 0.020 P1 C22 P1 C16 P1 C22B P1 C16B
SADI 0.020 C22 C25 C22 C30 C16 C33 C16 C32 C22B C25B C22B C30B C16B C33B =
 C16B C32B
SIMU 0.010 0.020 P1 C22 C25 C30 C16 C33 C32 C22B C25B C30B C16B C33B C32B
SADI 0.020 C11 C36 C11 C38 C11 C31 C11 C36B C11 C38B C11 C31B
SIMU 0.010 0.020 C11 C36 C38 C31 C36B C38B C31B
SADI 0.020 C27 C44 C27 C37 C27 C41 C27 C44B C27 C37B C27 C41B
SIMU 0.010 0.020 C27 C44 C37 C41 C44B C37B C41B
SIMU 0.010 0.020 C28 C40 C42 C34 C39 C43 C28B C40B C42B C34B C39B C43B

WGHT 0.069430 14.286559
FVAR 0.18969 0.86647 0.77391 0.80649 0.71660
LA1   6   0.429131   0.291512   0.269795    11.00000     0.04352     0.03309 =
      0.04307     0.00579     0.00733     0.00978
NI1   5   0.466930   0.070243   0.207492    11.00000     0.04993     0.03176 =
      0.04647     0.00553     0.01021     0.01115
P1    4   0.260805   0.052366   0.145799    11.00000     0.05176     0.03295 =
      0.04698     0.00317     0.00493     0.00680
P2    4   0.511716   0.071674   0.315004    11.00000     0.06009     0.03563 =
      0.04887     0.00988     0.00960     0.01498
N1    3   0.251792   0.281073   0.169958    11.00000     0.05632     0.03241 =
      0.04724     0.00690     0.00342     0.01068
N2    3   0.383424   0.247078   0.375648    11.00000     0.06393     0.04136 =
      0.04757     0.01048     0.01625     0.01620
N3    3   0.627323   0.295434   0.216782    11.00000     0.04638     0.04371 =
      0.05387     0.01083     0.00965     0.00320
C1    1   0.294940   0.493799   0.270075    11.00000     0.05503     0.03428 =
      0.04886     0.00583     0.00368     0.01285
C45   1   0.117013   0.348916   0.082938    11.00000     0.07514     0.04728 =
      0.04100     0.00921     0.00334     0.01121
AFIX 43
H45   2   0.103793   0.279707   0.048318    11.00000    -1.20000
AFIX 0
C46   1   0.245546   0.449716   0.316153    11.00000     0.05306     0.04134 =
      0.04636     0.00516     0.00533     0.01529
AFIX 43
H46   2   0.155684   0.413503   0.304407    11.00000    -1.20000
AFIX 0
C47   1   0.327940   0.458351   0.380306    11.00000     0.05734     0.03542 =
      0.04177     0.00185     0.00774     0.01461
C2    1   0.195071   0.363029   0.149834    11.00000     0.05407     0.03801 =
      0.04550     0.01325     0.00506     0.00920
C3    1   0.569955  -0.144195   0.142729    11.00000     0.08287     0.03349 =
      0.05502     0.00547     0.02047     0.02635
C48   1   0.211872   0.472297   0.199073    11.00000     0.05131     0.03822 =
      0.04595     0.00916     0.00689     0.00600
C4    1   0.594171   0.187941   0.192862    11.00000     0.05165     0.04599 =
      0.05713     0.01312     0.01187     0.01236
C5    1   0.429127   0.550596   0.289250    11.00000     0.06324     0.03838 =
      0.06432     0.01409     0.00753     0.00431
AFIX 43
H5    2   0.463248   0.581757   0.259226    11.00000    -1.20000
AFIX 0
C6    1   0.274451   0.402002   0.425834    11.00000     0.06232     0.04979 =
      0.04210     0.00474     0.00584     0.01865
C7    1   0.219079   0.170788   0.115592    11.00000     0.07318     0.04039 =
      0.04920     0.00501    -0.00226     0.01400
AFIX 23
H7A   2   0.122690   0.155853   0.094623    11.00000    -1.20000
H7B   2   0.267954   0.173569   0.079957    11.00000    -1.20000
AFIX 0
C8    1   0.153986   0.557873   0.182564    11.00000     0.08095     0.04188 =
      0.06103     0.01525     0.00495     0.01647
AFIX 43
H8    2   0.166221   0.627914   0.216282    11.00000    -1.20000
AFIX 0
N4    3   0.529863  -0.061590   0.166148    11.00000     0.07280     0.06081 =
      0.06618     0.01787     0.01389     0.01299
C9    1   0.193757   0.450755   0.469700    11.00000     0.07201     0.06952 =
      0.05044     0.00478     0.01677     0.02879
AFIX 43
H9    2   0.171723   0.520062   0.470089    11.00000    -1.20000
AFIX 0
C10   1   0.459863   0.515200   0.396968    11.00000     0.06891     0.04617 =
      0.04781     0.00059    -0.00457     0.00958
AFIX 43
H10   2   0.515007   0.522686   0.439490    11.00000    -1.20000
AFIX 0
C11   1   0.735860   0.360483   0.198492    11.00000     0.06229     0.05161 =
      0.09317     0.02074     0.03392     0.00249
C12   1   0.059958   0.435275   0.067739    11.00000     0.10188     0.06180 =
      0.05193     0.02462    -0.00683     0.01150
AFIX 43
H12   2   0.008083   0.421834   0.023497    11.00000    -1.20000
AFIX 0
C13   1   0.309789   0.295035   0.422044    11.00000     0.06241     0.04493 =
      0.04408     0.00708     0.01207     0.01164
C14   1   0.176337   0.296522   0.511388    11.00000     0.08219     0.08361 =
      0.05677     0.01295     0.02441     0.01135
AFIX 43
H14   2   0.142522   0.260380   0.539292    11.00000    -1.20000
AFIX 0
C15   1   0.690116   0.135340   0.364922    11.00000     0.06787     0.05843 =
      0.06028     0.02213    -0.00261     0.01060
AFIX 13
H15   2   0.703030   0.115943   0.407499    11.00000    -1.20000
AFIX 0
PART 1
C16   1   0.106601   0.017139   0.177956    21.00000     0.04912     0.07081 =
      0.06945     0.02025     0.00265    -0.00246
AFIX 13
H16   2   0.119627  -0.055477   0.183001    21.00000    -1.20000
AFIX 0
PART 0
C17   1   0.513097   0.561325   0.353043    11.00000     0.06554     0.04409 =
      0.06511     0.00828    -0.00323    -0.00471
AFIX 43
H17   2   0.602553   0.598645   0.365457    11.00000    -1.20000
AFIX 0
C18   1   0.715612   0.264113   0.386504    11.00000     0.07649     0.06815 =
      0.07286     0.01651     0.00259     0.00001
AFIX 137
H18A  2   0.807883   0.293056   0.411841    11.00000    -1.50000
H18B  2   0.654953   0.293484   0.415213    11.00000    -1.50000
H18C  2   0.699912   0.286165   0.345927    11.00000    -1.50000
AFIX 0
C19   1   0.416302   0.139283   0.380782    11.00000     0.07735     0.04731 =
      0.04818     0.01534     0.01834     0.01906
AFIX 23
H19A  2   0.470219   0.151696   0.426746    11.00000    -1.20000
H19B  2   0.332738   0.088847   0.374678    11.00000    -1.20000
AFIX 0
C20   1   0.077797   0.539948   0.116052    11.00000     0.10995     0.05366 =
      0.06185     0.02363     0.00021     0.02899
AFIX 43
H20   2   0.040210   0.597381   0.104835    11.00000    -1.20000
AFIX 0
C21   1   0.258283   0.245656   0.468468    11.00000     0.08240     0.06039 =
      0.05244     0.01635     0.02300     0.01467
AFIX 43
H21   2   0.280638   0.177180   0.469811    11.00000    -1.20000
AFIX 0
PART 1
C22   1   0.218355  -0.057627   0.057679    21.00000     0.06803     0.04608 =
      0.05579    -0.00313    -0.00491     0.00818
AFIX 13
H22   2   0.133116  -0.049298   0.030541    21.00000    -1.20000
AFIX 0
PART 0
C23   1   0.144879   0.399993   0.512888    11.00000     0.07742     0.09329 =
      0.06035     0.01478     0.02912     0.03479
AFIX 43
H23   2   0.091934   0.434876   0.542312    11.00000    -1.20000
AFIX 0
C24   1   0.496215  -0.073155   0.322307    11.00000     0.10200     0.04242 =
      0.07773     0.02254     0.02113     0.02361
AFIX 13
H24   2   0.565899  -0.105547   0.299485    11.00000    -1.20000
AFIX 0
PART 1
C25   1   0.331236  -0.041598   0.018017    21.00000     0.08608     0.06507 =
      0.05632    -0.00151     0.00679     0.01834
AFIX 137
H25A  2   0.309034  -0.098003  -0.026958    21.00000    -1.50000
H25B  2   0.416805  -0.048265   0.043500    21.00000    -1.50000
H25C  2   0.337438   0.031352   0.013065    21.00000    -1.50000
AFIX 0
PART 0
C26   1   0.359960  -0.142303   0.284032    11.00000     0.10537     0.05226 =
      0.10387     0.02521     0.01824    -0.00556
AFIX 137
H26A  2   0.355291  -0.215383   0.288739    11.00000    -1.50000
H26B  2   0.346813  -0.149436   0.235929    11.00000    -1.50000
H26C  2   0.290319  -0.106474   0.302861    11.00000    -1.50000
AFIX 0
C27   1   0.606915  -0.253621   0.114298    11.00000     0.10548     0.04667 =
      0.09009     0.01463     0.03602     0.04293
PART 1
C28   1   1.095037   0.715154   0.372639    51.00000     0.13037     0.08499 =
      0.10257     0.02202     0.01000     0.03433
AFIX 43
H28   2   1.108856   0.641213   0.361991    51.00000    -1.20000
AFIX 0
PART 0
C29   1   0.791892   0.087125   0.322844    11.00000     0.06158     0.10458 =
      0.10908     0.02904     0.01028     0.03392
AFIX 137
H29A  2   0.882739   0.120412   0.348987    11.00000    -1.50000
H29B  2   0.776981   0.103364   0.280217    11.00000    -1.50000
H29C  2   0.779755   0.007375   0.312951    11.00000    -1.50000
AFIX 0
PART 1
C30   1   0.194748  -0.176257   0.063809    21.00000     0.09898     0.04802 =
      0.08205    -0.00628    -0.00285     0.00587
AFIX 137
H30A  2   0.173184  -0.231488   0.018426    21.00000    -1.50000
H30B  2   0.120782  -0.182956   0.086111    21.00000    -1.50000
H30C  2   0.275636  -0.187907   0.090691    21.00000    -1.50000
AFIX 0
C31   1   0.862642   0.307724   0.196490    31.00000     0.06050     0.09945 =
      0.13879     0.02796     0.04159     0.00662
AFIX 137
H31A  2   0.929493   0.353171   0.184415    31.00000    -1.50000
H31B  2   0.840291   0.233984   0.162598    31.00000    -1.50000
H31C  2   0.898420   0.302610   0.241189    31.00000    -1.50000
AFIX 0
C32   1   0.101001   0.101640   0.244837    21.00000     0.06106     0.09477 =
      0.07586     0.01353     0.01445     0.00867
AFIX 137
H32A  2   0.020309   0.079626   0.258921    21.00000    -1.50000
H32B  2   0.099559   0.173641   0.239017    21.00000    -1.50000
H32C  2   0.179531   0.106033   0.279613    21.00000    -1.50000
AFIX 0
C33   1  -0.033800  -0.000217   0.127922    21.00000     0.05321     0.11320 =
      0.09932     0.00704     0.00509    -0.00323
AFIX 137
H33A  2  -0.105041  -0.017772   0.149680    21.00000    -1.50000
H33B  2  -0.039089  -0.060816   0.086031    21.00000    -1.50000
H33C  2  -0.043814   0.067239   0.117214    21.00000    -1.50000
AFIX 0
C34   1   1.055018   0.936713   0.405037    51.00000     0.13314     0.08545 =
      0.10627     0.01006    -0.00914     0.03684
AFIX 43
H34   2   1.041308   1.010674   0.415583    51.00000    -1.20000
AFIX 0
PART 0
C35   1   0.538856  -0.081048   0.393862    11.00000     0.18036     0.07293 =
      0.09856     0.04999     0.01012     0.02682
AFIX 137
H35A  2   0.526483  -0.158417   0.391067    11.00000    -1.50000
H35B  2   0.484338  -0.041991   0.423189    11.00000    -1.50000
H35C  2   0.632844  -0.047752   0.412801    11.00000    -1.50000
AFIX 0
PART 1
C36   1   0.766514   0.480527   0.247424    31.00000     0.11296     0.06539 =
      0.12271     0.01218     0.03675    -0.02003
AFIX 137
H36A  2   0.836980   0.522761   0.235550    31.00000    -1.50000
H36B  2   0.795973   0.481337   0.294103    31.00000    -1.50000
H36C  2   0.685995   0.513477   0.243595    31.00000    -1.50000
AFIX 0
C37   1   0.647559  -0.257994   0.048216    41.00000     0.11259     0.08600 =
      0.09961     0.00458     0.03403     0.02218
AFIX 137
H37A  2   0.672586  -0.329487   0.028182    41.00000    -1.50000
H37B  2   0.723564  -0.199492   0.057345    41.00000    -1.50000
H37C  2   0.572687  -0.247817   0.016588    41.00000    -1.50000
AFIX 0
C38   1   0.678280   0.368632   0.126449    31.00000     0.09928     0.08665 =
      0.09543     0.04021     0.02664    -0.00701
AFIX 137
H38A  2   0.746867   0.410593   0.113252    31.00000    -1.50000
H38B  2   0.600921   0.405759   0.128343    31.00000    -1.50000
H38C  2   0.651311   0.294602   0.093033    31.00000    -1.50000
AFIX 0
C39   1   1.143525   0.905445   0.451730    51.00000     0.13605     0.09164 =
      0.10227     0.01629    -0.00555     0.03552
AFIX 43
H39   2   1.190166   0.957683   0.493958    51.00000    -1.20000
AFIX 0
C40   1   1.007714   0.748598   0.327268    51.00000     0.13035     0.08948 =
      0.11070     0.01058     0.00207     0.03897
AFIX 43
H40   2   0.961322   0.696222   0.285039    51.00000    -1.20000
AFIX 0
C41   1   0.483714  -0.345662   0.099554    41.00000     0.13737     0.04748 =
      0.13708     0.01617     0.03911     0.01952
AFIX 137
H41A  2   0.508144  -0.417839   0.080798    41.00000    -1.50000
H41B  2   0.410572  -0.335829   0.066824    41.00000    -1.50000
H41C  2   0.455343  -0.340905   0.141815    41.00000    -1.50000
AFIX 0
C42   1   0.987377   0.858100   0.342983    51.00000     0.13605     0.08999 =
      0.10709     0.00857    -0.00506     0.03748
AFIX 43
H42   2   0.927646   0.878884   0.311474    51.00000    -1.20000
AFIX 0
C43   1   1.161095   0.795186   0.434316    51.00000     0.13492     0.09170 =
      0.10370     0.02336     0.00479     0.03466
AFIX 43
H43   2   1.220424   0.774020   0.465789    51.00000    -1.20000
AFIX 0
C44   1   0.715875  -0.265759   0.169199    41.00000     0.13987     0.08436 =
      0.11094     0.02702     0.01511     0.05507
AFIX 137
H44A  2   0.743504  -0.337194   0.152577    41.00000    -1.50000
H44B  2   0.681462  -0.260909   0.209900    41.00000    -1.50000
H44C  2   0.792488  -0.206953   0.180305    41.00000    -1.50000
AFIX 0
PART 2
C22B  1   0.261682  -0.044008   0.057268   -21.00000     0.06742     0.04423 =
      0.05333    -0.00019     0.00198     0.00681
AFIX 13
H22B  2   0.193507  -0.025170   0.024767   -21.00000    -1.20000
AFIX 0
C25B  1   0.389571  -0.022507   0.029358   -21.00000     0.07409     0.05251 =
      0.05008    -0.00488     0.00182     0.00683
AFIX 137
H1    2   0.379562  -0.076050  -0.015922   -21.00000    -1.50000
H2    2   0.468058  -0.030057   0.059954   -21.00000    -1.50000
H3    2   0.400544   0.051944   0.026703   -21.00000    -1.50000
AFIX 0
C30B  1   0.216126  -0.167167   0.051237   -21.00000     0.07262     0.04881 =
      0.05922    -0.00531     0.00650     0.00584
AFIX 137
H4    2   0.217046  -0.215427   0.005800   -21.00000    -1.50000
H6    2   0.125796  -0.176588   0.058915   -21.00000    -1.50000
H7    2   0.277198  -0.186095   0.085245   -21.00000    -1.50000
AFIX 0
C16B  1   0.086565   0.003305   0.155255   -21.00000     0.05251     0.06678 =
      0.06720     0.01220     0.00415     0.00208
C33B  1  -0.034565  -0.071942   0.097482   -21.00000     0.05947     0.09151 =
      0.08530     0.01339     0.00907     0.00232
AFIX 137
H11   2  -0.111235  -0.083613   0.117155   -21.00000    -1.50000
H13   2  -0.009846  -0.142906   0.075859   -21.00000    -1.50000
H18   2  -0.057856  -0.036048   0.063546   -21.00000    -1.50000
AFIX 0
C32B  1   0.098066  -0.008249   0.227533   -21.00000     0.04939     0.08474 =
      0.07436     0.01332     0.01034     0.00396
AFIX 137
H19   2   0.009399  -0.033345   0.232987   -21.00000    -1.50000
H25   2   0.136304   0.063161   0.262319   -21.00000    -1.50000
H26   2   0.155666  -0.061766   0.232360   -21.00000    -1.50000
AFIX 0
C36B  1   0.819386   0.441621   0.268838   -31.00000     0.08791     0.06677 =
      0.12120     0.01166     0.03522    -0.01668
AFIX 137
H27   2   0.892961   0.487614   0.261593   -31.00000    -1.50000
H29   2   0.855203   0.399402   0.297044   -31.00000    -1.50000
H30   2   0.762054   0.488418   0.291722   -31.00000    -1.50000
AFIX 0
C38B  1   0.673536   0.460067   0.188308   -31.00000     0.09638     0.07935 =
      0.11428     0.02895     0.03068    -0.00573
AFIX 137
H31   2   0.737799   0.507588   0.176118   -31.00000    -1.50000
H32   2   0.650846   0.501942   0.230497   -31.00000    -1.50000
H33   2   0.592814   0.433225   0.151912   -31.00000    -1.50000
AFIX 0
C31B  1   0.832914   0.288469   0.166281   -31.00000     0.04568     0.07195 =
      0.10099     0.00744     0.04576     0.00955
AFIX 137
H35   2   0.901208   0.334373   0.155378   -31.00000    -1.50000
H36   2   0.783226   0.230434   0.124709   -31.00000    -1.50000
H37   2   0.875510   0.255188   0.198443   -31.00000    -1.50000
AFIX 0
C44B  1   0.752813  -0.255890   0.144424   -41.00000     0.12062     0.07094 =
      0.10128     0.02245     0.02847     0.05099
AFIX 137
H38   2   0.773080  -0.329267   0.124403   -41.00000    -1.50000
H41   2   0.766368  -0.238250   0.193666   -41.00000    -1.50000
H44   2   0.811819  -0.201597   0.134370   -41.00000    -1.50000
AFIX 0
C37B  1   0.579772  -0.288562   0.036726   -41.00000     0.11016     0.06859 =
      0.09333    -0.00023     0.03868     0.03213
AFIX 137
H47   2   0.604609  -0.360797   0.018729   -41.00000    -1.50000
H48   2   0.632453  -0.234600   0.023426   -41.00000    -1.50000
H49   2   0.484903  -0.292624   0.018437   -41.00000    -1.50000
AFIX 0
C41B  1   0.526093  -0.326200   0.143957   -41.00000     0.13608     0.05226 =
      0.11341     0.02734     0.02860     0.03640
AFIX 137
H50   2   0.543646  -0.401452   0.128027   -41.00000    -1.50000
H51   2   0.430955  -0.326226   0.129157   -41.00000    -1.50000
H52   2   0.552154  -0.297191   0.193594   -41.00000    -1.50000
AFIX 0
C28B  1   1.178609   0.746244   0.406759   -51.00000     0.13304     0.08526 =
      0.10040     0.02035     0.00766     0.03255
AFIX 43
H28B  2   1.237744   0.697514   0.413255   -51.00000    -1.20000
AFIX 0
C43B  1   1.208192   0.859980   0.445476   -51.00000     0.13599     0.08918 =
      0.10157     0.01701     0.00445     0.03261
AFIX 43
H43B  2   1.288147   0.890915   0.479193   -51.00000    -1.20000
AFIX 0
C39B  1   1.112815   0.925022   0.431409   -51.00000     0.13608     0.08995 =
      0.10584     0.01493    -0.00164     0.03489
AFIX 43
H39B  2   1.129029   1.001376   0.456154   -51.00000    -1.20000
AFIX 0
C34B  1   0.993763   0.878160   0.381105   -51.00000     0.13559     0.09065 =
      0.10687     0.01341    -0.00205     0.03683
AFIX 43
H34B  2   0.934003   0.926235   0.374187   -51.00000    -1.20000
AFIX 0
C42B  1   0.955592   0.766474   0.340226   -51.00000     0.13469     0.09132 =
      0.10770     0.01270     0.00297     0.03535
AFIX 43
H42B  2   0.875693   0.735157   0.306520   -51.00000    -1.20000
AFIX 0
C40B  1   1.057000   0.709646   0.358268   -51.00000     0.13156     0.08613 =
      0.10282     0.01977     0.00521     0.03509
AFIX 43
H40B  2   1.040314   0.633349   0.333341   -51.00000    -1.20000
AFIX 0
PART 0
HKLF 4
END
