TITL CrystalPilot n0000 in P -1
REM CrystalPilot node n0000 tool=import
CELL 1.54178 6.98020 9.35700 12.57790 102.8330 94.2960 107.5670
ZERR 2 0.00030 0.00040 0.00050 0.0040 0.0040 0.0040
LATT 1
SFAC C H N O
UNIT 32.0 28.0 4.0 10.0

WGHT 0.100000 0.000000
FVAR 1.00000
O1    4  -0.186670   0.042730   0.012890    11.00000     0.09580     0.08340 =
      0.08770    -0.02120    -0.01320     0.01300
O2    4   0.024890   0.259400   0.006500    11.00000     0.12910     0.10250 =
      0.06970     0.01270     0.00510     0.01110
O3    4   0.123710   0.202540   0.567420    11.00000     0.18210     0.05050 =
      0.08540     0.02450     0.00530     0.00550
O4    4   0.400860   0.746050   0.557270    11.00000     0.09730     0.05010 =
      0.05050     0.01000     0.00300     0.01200
O5    4   0.527580   0.935540   0.710990    11.00000     0.08210     0.04820 =
      0.05570     0.00790     0.00180     0.00880
N1    3  -0.054770   0.166830   0.056110    11.00000     0.07660     0.07230 =
      0.07140    -0.00880     0.00040     0.02120
N2    3   0.249270   0.458780   0.579970    11.00000     0.07250     0.04540 =
      0.05900     0.01410     0.00460     0.01330
H2    2   0.273300   0.524100   0.540100    11.00000     0.07300
C1    1   0.113700   0.278480   0.400990    11.00000     0.05560     0.04210 =
      0.07170     0.00850     0.00710     0.01310
C2    1   0.010130   0.125900   0.341800    11.00000     0.07230     0.04290 =
      0.08490     0.01030     0.00830     0.01140
H2A   2  -0.023200   0.048300   0.378900    11.00000     0.08400
C3    1  -0.043500   0.088540   0.229240    11.00000     0.06990     0.04440 =
      0.08460    -0.00450     0.00190     0.00950
H3A   2  -0.113100  -0.013400   0.190000    11.00000     0.08700
C4    1   0.007370   0.204030   0.175950    11.00000     0.05640     0.05680 =
      0.06770    -0.00150     0.00450     0.01780
C5    1   0.113090   0.355870   0.231100    11.00000     0.06900     0.05240 =
      0.06460     0.00750     0.00550     0.01220
H5A   2   0.148800   0.432300   0.193000    11.00000     0.07800
C6    1   0.164500   0.391780   0.343750    11.00000     0.06840     0.04150 =
      0.06700     0.00480     0.00390     0.00730
H6A   2   0.234700   0.494000   0.382200    11.00000     0.07600
C7    1   0.162190   0.308770   0.523500    11.00000     0.07420     0.04430 =
      0.07400     0.01590     0.00910     0.01280
C8    1   0.306130   0.523560   0.693440    11.00000     0.05700     0.05610 =
      0.06080     0.01900     0.00590     0.01870
C9    1   0.269620   0.435590   0.770400    11.00000     0.08540     0.06680 =
      0.07420     0.03030     0.00470     0.01890
H9A   2   0.206800   0.328700   0.746400    11.00000     0.09000
C10   1   0.325580   0.505390   0.881370    11.00000     0.10130     0.09480 =
      0.07300     0.04540     0.00800     0.02770
H10A  2   0.298000   0.445000   0.931500    11.00000     0.10400
C11   1   0.421320   0.662430   0.919630    11.00000     0.09590     0.09330 =
      0.05500     0.02360    -0.00040     0.02940
H11A  2   0.461000   0.707900   0.994900    11.00000     0.09800
C12   1   0.457860   0.751510   0.845620    11.00000     0.06780     0.06960 =
      0.05580     0.01370     0.00060     0.02100
H12A  2   0.521500   0.858100   0.871400    11.00000     0.07900
C13   1   0.401650   0.685490   0.732740    11.00000     0.05170     0.05540 =
      0.05500     0.01370     0.00430     0.01850
C14   1   0.441090   0.788290   0.656840    11.00000     0.05510     0.05010 =
      0.05320     0.00920     0.00380     0.01440
C15A  1   0.589600   1.048200   0.648900    10.64300     0.08400     0.05190 =
      0.06680     0.01820     0.00170     0.01340
H15A  2   0.471600   1.051100   0.604600    10.64300     0.08400
H15B  2   0.680500   1.020200   0.599700    10.64300     0.08400
C16A  1   0.695400   1.203700   0.726400    10.64300     0.11400     0.05280 =
      0.09120     0.01390     0.00500     0.00400
H16A  2   0.749300   1.277600   0.685000    10.64300     0.13900
H16B  2   0.804300   1.197800   0.774700    10.64300     0.13900
H16C  2   0.600500   1.235900   0.769300    10.64300     0.13900
C15B  1   0.550000   1.050500   0.643700    10.35700     0.08400     0.05190 =
      0.06680     0.01820     0.00170     0.01340
H15C  2   0.650800   1.044800   0.595300    10.35700     0.08400
H15D  2   0.421600   1.035800   0.600100    10.35700     0.08400
C16B  1   0.618500   1.199800   0.730900    10.35700     0.11400     0.05280 =
      0.09120     0.01390     0.00500     0.00400
H16D  2   0.653600   1.284700   0.697000    10.35700     0.13900
H16E  2   0.735200   1.204500   0.778800    10.35700     0.13900
H16F  2   0.510800   1.206200   0.772900    10.35700     0.13900
HKLF 4
END
