TITL CrystalPilot n0010 in I 41/a m d :2
REM CrystalPilot node n0010 tool=solvent_mask
CELL 1.54178 15.85170 15.85170 57.50380 90.0000 90.0000 90.0000
ZERR 4 0 0 0 0 0 0
LATT 2
SYMM -Y+1/4,X+3/4,Z+1/4
SYMM Y+1/4,-X+1/4,Z+3/4
SYMM X,-Y,-Z
SYMM -X,Y+1/2,-Z
SYMM -X,-Y+1/2,Z
SYMM Y+1/4,X+3/4,-Z+1/4
SYMM -Y+1/4,-X+1/4,-Z+3/4
SFAC C H O Zr
UNIT 272.0 144.0 128.0 24.0

WGHT 0.100000 0.000000
FVAR 0.12723
FE01  4   0.000000   0.250000   0.331550    10.25000     0.05407     0.03144 =
      0.03612     0.00000     0.00000     0.00000
ZR02  4   0.110262   0.360262   0.375000    10.50000     0.06251     0.06251 =
      0.04245    -0.00315     0.00315    -0.02927
O004  3   0.126511   0.250000   0.350633    10.50000     0.04743     0.07433 =
      0.04929     0.00000     0.01200     0.00000
O005  3   0.088936   0.335258   0.436934    11.00000     0.05957     0.09777 =
      0.06797    -0.02083    -0.01546    -0.01154
O006  3   0.161819   0.402894   0.408182    11.00000     0.10911     0.14456 =
      0.05833    -0.01414    -0.01246    -0.06583
O007  3   0.074448   0.500498   0.374338    11.00000     0.35109     0.06459 =
      0.06944    -0.00924     0.02922    -0.08893
C008  1   0.216759   0.386119   0.468604    11.00000     0.06540     0.13964 =
      0.06357    -0.03534    -0.00797    -0.00781
AFIX 43
H008  2   0.175702   0.349068   0.474003    11.00000    -1.20000
AFIX 0
C009  1   0.213000   0.416703   0.445874    11.00000     0.06350     0.11001 =
      0.07209    -0.02544    -0.00297    -0.01445
C00A  1   0.149071   0.383425   0.429062    11.00000     0.06232     0.10691 =
      0.06094    -0.00920    -0.00306    -0.01512
C00B  1   0.500000   0.471423   0.477591    10.50000     0.05193     0.14105 =
      0.07801    -0.04637     0.00000     0.00000
AFIX 43
H00B  2   0.500000   0.449381   0.462603    10.50000    -1.20000
AFIX 0
C00D  1   0.345381   0.468314   0.474516    11.00000     0.04743     0.12953 =
      0.07754    -0.04837    -0.00570    -0.00023
C00E  1   0.422061   0.486969   0.488162    11.00000     0.05033     0.13780 =
      0.06855    -0.04624    -0.00105    -0.00907
C00F  1   0.273160   0.474047   0.437736    11.00000     0.07332     0.11784 =
      0.08597    -0.01172    -0.01377    -0.02864
AFIX 43
H00F  2   0.268448   0.495525   0.422742    11.00000    -1.20000
AFIX 0
O5X   3   0.000000   0.156634   0.356485    10.50000     0.06196     0.03263 =
      0.04002     0.00239     0.00000     0.00000
C8X   1   0.161563   0.032885   0.733307    11.00000     0.12944     0.05907 =
      0.07779    -0.00474    -0.03561     0.00378
AFIX 43
H8X   2   0.141808   0.035952   0.748512    11.00000    -1.20000
AFIX 0
C9X   1   0.160621   0.000836   0.048348    11.00000     0.07272     0.12844 =
      0.08421    -0.02062    -0.01485    -0.01935
AFIX 43
H9X   2   0.120170  -0.036285   0.054049    11.00000    -1.20000
AFIX 0
HKLF 4
END
