TITL CrystalPilot n0006 in I 41/a m d :2
REM CrystalPilot node n0006 tool=refine
REM R1 = 0.1344 wR2 = 0.3874 GooF = 2.925
CELL 1.54178 15.85170 15.85170 57.50380 90.0000 90.0000 90.0000
ZERR 4 0 0 0 0 0 0
LATT 2
SYMM -Y+1/4,X+3/4,Z+1/4
SYMM Y+1/4,-X+1/4,Z+3/4
SYMM X,-Y,-Z
SYMM -X,Y+1/2,-Z
SYMM -X,-Y+1/2,Z
SYMM Y+1/4,X+3/4,-Z+1/4
SYMM -Y+1/4,-X+1/4,-Z+3/4
SFAC C O Zr
UNIT 272.0 128.0 24.0

WGHT 0.100000 0.000000
FVAR 0.12347
FE01  3   0.000000   0.250000   0.331535    10.25000     0.05330     0.02999 =
      0.03508     0.00000    -0.00000    -0.00000
ZR02  3   0.110239   0.360239   0.375000    10.50000     0.06082     0.06082 =
      0.04171    -0.00316     0.00316    -0.02844
O004  2   0.125913   0.250000   0.350730    10.50000     0.05338
O005  2   0.089102   0.334938   0.437099    11.00000     0.07176
O006  2   0.161665   0.404589   0.408028    11.00000     0.09185
O007  2   0.077055   0.501507   0.374304    11.00000     0.11397
C008  1   0.216842   0.386731   0.468530    11.00000     0.07846
C009  1   0.214158   0.414840   0.446045    11.00000     0.07678
C00A  1   0.148900   0.382573   0.429413    11.00000     0.07139
C00B  1   0.500000   0.474004   0.477272    10.50000     0.08323
C00D  1   0.344652   0.467767   0.474701    11.00000     0.07422
C00E  1   0.422416   0.486780   0.488082    11.00000     0.07383
C00F  1   0.272847   0.474193   0.437672    11.00000     0.08193
O5X   2   0.000000   0.156868   0.356421    10.50000     0.04240
C8X   1   0.162592   0.032705   0.732984    11.00000     0.07434
C9X   1   0.159338   0.002804   0.047587    11.00000     0.08294
HKLF 4
END
