TITL CrystalPilot n0069 in P -1
REM CrystalPilot node n0069 tool=run_shelxl
REM R1 = 0.0726 wR2 = 0.2229 GooF = 1.092
CELL 0.71073 10.15540 12.70750 20.80080 107.6910 100.3150 96.2330
ZERR 2 0.00170 0.00210 0.00440 0.0030 0.0030 0.0020
LATT 1
SFAC C N P Ni La
UNIT 88.0 16.0 4.0 2.0 2.0

DFIX 1.3900 0.010 C28 C40
DFIX 1.3900 0.010 C40 C42
DFIX 1.3900 0.010 C42 C34
DFIX 1.3900 0.010 C34 C39
DFIX 1.3900 0.010 C39 C43
DFIX 1.3900 0.010 C43 C28
FLAT 0.01 C28 C40 C42 C34 C39 C43
SADI 0.020 C11 C36 C11 C38 C11 C31 C11 C36B C11 C38B C11 C31B
SIMU 0.010 0.020 C11 C36 C38 C31 C36B C38B C31B
SADI 0.020 C27 C44 C27 C37 C27 C41 C27 C44B C27 C37B C27 C41B
SIMU 0.010 0.020 C27 C44 C37 C41 C44B C37B C41B

WGHT 0.082660 10.758620
FVAR 0.18921 0.76547 0.50877
LA1   5   0.429108   0.291527   0.269800    11.00000     0.04341     0.03299 =
      0.04292     0.00575     0.00736     0.00972
NI1   4   0.466883   0.070251   0.207509    11.00000     0.04997     0.03167 =
      0.04626     0.00538     0.01012     0.01113
P1    3   0.260780   0.052311   0.145792    11.00000     0.05160     0.03258 =
      0.04672     0.00295     0.00490     0.00676
P2    3   0.511705   0.071713   0.314964    11.00000     0.05998     0.03569 =
      0.04860     0.00985     0.00971     0.01492
N1    2   0.251623   0.280673   0.169886    11.00000     0.05705     0.03256 =
      0.04632     0.00719     0.00313     0.01144
N2    2   0.383287   0.246820   0.375400    11.00000     0.06491     0.04080 =
      0.04765     0.00984     0.01660     0.01649
N3    2   0.627441   0.296003   0.216839    11.00000     0.04670     0.04259 =
      0.05461     0.00948     0.00922     0.00332
C1    1   0.294573   0.493948   0.270047    11.00000     0.05508     0.03440 =
      0.04867     0.00711     0.00504     0.01250
N4    2   0.117219   0.348657   0.082581    11.00000     0.08762     0.06120 =
      0.05282     0.01604     0.00437     0.01334
N5    2   0.245235   0.449225   0.315841    11.00000     0.06965     0.05276 =
      0.05488     0.00683     0.00596     0.02121
N6    2   0.328109   0.457985   0.380168    11.00000     0.06807     0.04537 =
      0.05271     0.00354     0.00785     0.01730
C2    1   0.194520   0.363113   0.149754    11.00000     0.05406     0.03718 =
      0.04657     0.01272     0.00625     0.01002
C3    1   0.570240  -0.143671   0.142477    11.00000     0.08291     0.03490 =
      0.05606     0.00648     0.02045     0.02750
N7    2   0.211910   0.472625   0.199389    11.00000     0.06282     0.04711 =
      0.05735     0.01150     0.00904     0.00863
C4    1   0.593740   0.187108   0.192784    11.00000     0.05221     0.04674 =
      0.05778     0.01321     0.01339     0.01229
C5    1   0.429754   0.551112   0.288781    11.00000     0.06356     0.03807 =
      0.06354     0.01229     0.00492     0.00540
C6    1   0.274560   0.402205   0.425780    11.00000     0.06271     0.04965 =
      0.04167     0.00544     0.00655     0.01904
C7    1   0.218458   0.170712   0.115434    11.00000     0.07513     0.03838 =
      0.05088     0.00475    -0.00510     0.01406
C8    1   0.153238   0.558495   0.183204    11.00000     0.07976     0.04324 =
      0.06345     0.01789     0.00629     0.01536
N8    2   0.529944  -0.060955   0.166172    11.00000     0.07189     0.06020 =
      0.06604     0.01865     0.01403     0.01202
C9    1   0.194522   0.452664   0.469546    11.00000     0.07016     0.07801 =
      0.04740     0.00477     0.01681     0.02865
C10   1   0.460710   0.514949   0.397232    11.00000     0.06518     0.04404 =
      0.05156     0.00153    -0.00307     0.00751
C11   1   0.735407   0.360907   0.198473    11.00000     0.06459     0.05807 =
      0.08130     0.02309     0.02779     0.00629
C12   1   0.059714   0.434886   0.067375    11.00000     0.10011     0.05640 =
      0.05217     0.02173    -0.00172     0.01369
C13   1   0.309704   0.294869   0.421786    11.00000     0.06260     0.04498 =
      0.04517     0.00771     0.01231     0.01144
C14   1   0.174877   0.296640   0.511938    11.00000     0.08201     0.08072 =
      0.05965     0.01003     0.02513     0.01113
C15   1   0.689775   0.134433   0.365006    11.00000     0.06839     0.05695 =
      0.06124     0.02052    -0.00357     0.01134
C16   1   0.105922   0.016201   0.177114    11.00000     0.04601     0.08489 =
      0.08913     0.02881     0.00912    -0.00233
C17   1   0.513729   0.561430   0.353088    11.00000     0.06452     0.04641 =
      0.06429     0.00878    -0.00275    -0.00311
C18   1   0.716631   0.265032   0.386750    11.00000     0.07757     0.06158 =
      0.07462     0.01435     0.00451     0.00238
C19   1   0.415648   0.139102   0.381189    11.00000     0.08088     0.04746 =
      0.04923     0.01551     0.01979     0.02285
C20   1   0.077215   0.541183   0.116397    11.00000     0.10858     0.05210 =
      0.05950     0.02089    -0.00168     0.02467
C21   1   0.258377   0.244141   0.468471    11.00000     0.08162     0.06569 =
      0.05047     0.01557     0.02262     0.01305
C22   1   0.222017  -0.055666   0.056863    11.00000     0.08575     0.04823 =
      0.05638    -0.00394    -0.00648     0.01346
C23   1   0.143476   0.398992   0.513123    11.00000     0.07489     0.09120 =
      0.06269     0.01644     0.02696     0.03187
C24   1   0.496307  -0.073463   0.321669    11.00000     0.10653     0.04133 =
      0.07878     0.02435     0.01614     0.01951
C25   1   0.336823  -0.039931   0.018878    11.00000     0.11387     0.07784 =
      0.06076     0.00657     0.02629     0.02858
C26   1   0.356720  -0.142180   0.283274    11.00000     0.10547     0.05430 =
      0.09973     0.02338     0.01331    -0.00764
C27   1   0.606090  -0.253542   0.114209    11.00000     0.08926     0.05309 =
      0.08744     0.01434     0.02945     0.03771
C28   1   1.091402   0.714410   0.370933    11.00000     0.15495     0.08556 =
      0.11705     0.03600     0.04849     0.03957
C29   1   0.792880   0.087568   0.322074    11.00000     0.06252     0.12172 =
      0.10625     0.03445     0.01228     0.04188
C30   1   0.195180  -0.176279   0.062788    11.00000     0.11671     0.04067 =
      0.09621    -0.00729    -0.01517     0.00712
PART 1
C31   1   0.866436   0.307111   0.197933    21.00000     0.09798
PART 0
C32   1   0.101724   0.099888   0.244051    11.00000     0.07915     0.13322 =
      0.08059     0.01127     0.02062     0.01938
C33   1  -0.036743  -0.001335   0.125744    11.00000     0.05224     0.15635 =
      0.11836     0.02009     0.00319    -0.00409
C34   1   1.057117   0.937697   0.406530    11.00000     0.16502     0.08907 =
      0.14654     0.00329    -0.00578     0.03216
C35   1   0.541011  -0.080456   0.395722    11.00000     0.17596     0.07566 =
      0.09555     0.05174     0.01325     0.02639
PART 1
C36   1   0.766105   0.483448   0.248356    21.00000     0.09866
C37   1   0.664605  -0.247976   0.051206    31.00000     0.09618
C38   1   0.676061   0.368040   0.125155    21.00000     0.08853
PART 0
C39   1   1.150445   0.904080   0.449012    11.00000     0.18703     0.12416 =
      0.09989     0.02275    -0.02292    -0.00529
C40   1   0.998537   0.749036   0.328973    11.00000     0.13016     0.09230 =
      0.17459     0.01404    -0.00766     0.01895
PART 1
C41   1   0.473570  -0.346602   0.087083    31.00000     0.08946
PART 0
C42   1   0.981751   0.859355   0.346646    11.00000     0.18731     0.11273 =
      0.16198     0.01063    -0.01934     0.05555
C43   1   1.168081   0.792757   0.431461    11.00000     0.17113     0.24584 =
      0.15399     0.13446     0.03790     0.07835
PART 1
C44   1   0.704979  -0.272612   0.173908    31.00000     0.09292
PART 2
C36B  1   0.811693   0.454206   0.268620   -21.00000     0.07158
C38B  1   0.684323   0.471885   0.197360   -21.00000     0.08332
C31B  1   0.840123   0.293077   0.167403   -21.00000     0.05047
C44B  1   0.747703  -0.253698   0.158713   -31.00000     0.09106
C37B  1   0.614638  -0.264243   0.039161   -31.00000     0.09688
C41B  1   0.495067  -0.344552   0.118839   -31.00000     0.08484
PART 0
HKLF 4
END
