TITL CrystalPilot n0005 in C 2 2 21
REM CrystalPilot node n0005 tool=refine
REM R1 = 0.0915 wR2 = 0.2782 GooF = 2.528
CELL 0.68914 15.79000 32.31000 11.86000 90.0000 90.0000 90.0000
ZERR 8 0 0 0 0 0 0
LATT -7
SYMM X,-Y,-Z
SYMM -X,Y,-Z+1/2
SYMM -X,-Y,Z+1/2
SFAC C O Cu
UNIT 232.0 40.0 8.0

WGHT 0.100000 0.000000
FVAR 0.28676
CU1   3   0.069004   0.019807   0.363638    11.00000     0.04006     0.02105 =
      0.08250     0.00102    -0.01822    -0.00171
C1    1   0.071571   0.294318   0.210881    11.00000     0.03273     0.01942 =
      0.05147    -0.00457     0.00917    -0.00265
C2    1   0.000000   0.272135   0.250000    10.50000     0.03396     0.01866 =
      0.04717     0.00000     0.00602    -0.00000
C3    1   0.000000   0.405560   0.250000    10.50000     0.09666     0.00950 =
      0.04556     0.00000    -0.00051    -0.00000
O1    2   0.159254   0.046732   0.449498    11.00000     0.04652     0.04399 =
      0.07688     0.00622    -0.01831    -0.01903
C4    1   0.000000   0.359886   0.250000    10.50000     0.04847     0.01732 =
      0.04329     0.00000     0.00700    -0.00000
C5    1   0.071700   0.337671   0.211536    11.00000     0.04100     0.02246 =
      0.04677    -0.00264     0.00577    -0.00584
O2    2   0.031689   0.076486   0.335818    11.00000     0.08180     0.02054 =
      0.09533     0.00112    -0.02614     0.00422
C6    1   0.000000   0.140570   0.250000    10.50000     0.05337     0.02015 =
      0.06924     0.00000    -0.00804    -0.00000
O3    2   0.000000  -0.001977   0.250000    10.50000     0.11021     0.02468 =
      0.17486     0.00000    -0.09175    -0.00000
C7    1   0.218122   0.218436   0.063596    11.00000     0.11294     0.10102 =
      0.04316    -0.00160     0.01094     0.06923
O4    2   0.123193   0.033818   0.628768    11.00000     0.05665     0.03640 =
      0.09633    -0.01308     0.02983    -0.01693
C8    1   0.148184   0.271061   0.175565    11.00000     0.04509     0.03310 =
      0.05267    -0.00615     0.01607     0.00380
C9    1   0.000000   0.226432   0.250000    10.50000     0.04090     0.02011 =
      0.05454     0.00000     0.00181    -0.00000
C10   1   0.229546   0.083242   0.592504    11.00000     0.04073     0.03421 =
      0.06036    -0.00124     0.00068    -0.01194
C11   1   0.144675   0.362298   0.169635    11.00000     0.04616     0.03498 =
      0.04913    -0.00177     0.00300    -0.01762
C12   1   0.168359   0.361862   0.055367    11.00000     0.04134     0.04253 =
      0.05123    -0.00877     0.00730    -0.01535
C13   1   0.122166   0.334252   0.724409    11.00000     0.13783     0.13600 =
      0.06256    -0.00867    -0.00723     0.09489
C14   1   0.146283   0.242990   0.085594    11.00000     0.08643     0.04783 =
      0.04653    -0.00304     0.01661     0.02416
C15   1   0.207211   0.250309   0.717309    11.00000     0.05629     0.09955 =
      0.07861    -0.01730    -0.01886     0.03161
C16   1   0.229575   0.390072   0.017325    11.00000     0.04846     0.03585 =
      0.05689    -0.00238     0.00862    -0.01135
C17   1   0.054726   0.161663   0.321032    11.00000     0.05990     0.02447 =
      0.07358    -0.00280    -0.01601     0.00296
C18   1   0.055280   0.204618   0.318664    11.00000     0.05021     0.02578 =
      0.06165    -0.00112    -0.01018     0.00426
C19   1   0.222634   0.274216   0.237160    11.00000     0.04028     0.07271 =
      0.07741    -0.00763     0.00972     0.00767
C20   1   0.003569   0.427658   0.149868    11.00000     0.16523     0.02094 =
      0.04215     0.00397     0.01623     0.00250
O5    2   0.030485   0.000000   0.000000    10.50000     0.04567     0.11898 =
      0.14871    -0.04468    -0.00000    -0.00000
C21   1   0.209651   0.278417   0.629957    11.00000     0.09374     0.13568 =
      0.05074    -0.00660    -0.01683     0.07880
C22   1   0.188251   0.388119   0.244372    11.00000     0.08026     0.05260 =
      0.05021    -0.00420    -0.00522    -0.02788
C23   1   0.000000   0.491712   0.250000    10.50000     0.68061     0.01295 =
      0.05371     0.00000     0.06364    -0.00000
C24   1   0.000000   0.092834   0.250000    10.50000     0.05683     0.03180 =
      0.07738     0.00000    -0.01362    -0.00000
C25   1   0.251081   0.084087   0.707799    11.00000     0.06708     0.04731 =
      0.06110     0.00166     0.00697    -0.02573
C26   1   0.006669   0.470270   0.149850    11.00000     0.45417     0.02512 =
      0.04968     0.00587     0.02877     0.01105
C27   1   0.107807   0.316967   0.512186    11.00000     0.08661     0.11218 =
      0.24474     0.02405    -0.02895     0.02642
C28   1   0.000000   0.461773   0.750000    10.50000     1.97545     0.01042 =
      0.07201     0.00000    -0.13662    -0.00000
C29X  1   0.164686   0.052728   0.553153    11.00000     0.04028     0.02503 =
      0.07906    -0.00396     0.00610    -0.00597
C30X  1   0.129175   0.306142   0.616752    11.00000     0.13812     0.20038 =
      0.06060    -0.03119    -0.03643     0.13303
C31X  2   0.035183   0.441120   0.847699    11.00000     0.62194     0.04890 =
      0.12008    -0.00224    -0.11430     0.04461
C32X  1   0.048501   0.279397   0.600534    11.00000     0.10641     0.30843 =
      0.13277    -0.13266    -0.08288     0.13674
C33X  1   0.070538   0.294585   0.550494    11.00000     0.39500     1.94558 =
      1.10710     0.40150     0.60626     0.13109
C34X  1   0.172091   0.350258   0.525380    11.00000     0.34593     0.27289 =
      0.07458     0.05919     0.04992     0.26447
HKLF 4
END
