TITL CrystalPilot n0022 in P -1
REM CrystalPilot node n0022 tool=run_shelxl
REM R1 = 0.071 wR2 = 0.2525 GooF = 1.858
CELL 0.71073 10.15540 12.70750 20.80783 104.7106 104.0490 96.2330
ZERR 2 0.00000 0.00000 0.00000 0.0000 0.0000 0.0000
LATT 1
SFAC C H N P Ni La
UNIT 88.0 110.0 16.0 4.0 2.0 2.0

BASF 0.00875
WGHT 0.100000 0.000000
FVAR 0.60102
LA1   6  -0.159339  -0.021728   0.269793    11.00000     0.04539     0.04366 =
      0.04303     0.02115     0.01415     0.01547
NI1   5  -0.259379   0.137233   0.207448    11.00000     0.04942     0.04405 =
      0.04654     0.02379     0.01299     0.01639
P1    4  -0.115037   0.093409   0.145700    11.00000     0.05668     0.04851 =
      0.04714     0.02644     0.01862     0.01679
P2    4  -0.196678   0.243417   0.314961    11.00000     0.06147     0.04322 =
      0.04920     0.02109     0.01557     0.01906
N1    3  -0.082033  -0.110592   0.169905    11.00000     0.06052     0.04182 =
      0.04803     0.02051     0.01929     0.01992
N2    3  -0.006831   0.129044   0.375529    11.00000     0.06055     0.04810 =
      0.04908     0.02031     0.00733     0.01641
N3    3  -0.409343  -0.079370   0.217349    11.00000     0.04921     0.05448 =
      0.05658     0.02612     0.02030     0.01008
C1    1  -0.025014  -0.223883   0.269928    11.00000     0.06572     0.04403 =
      0.05090     0.02394     0.02229     0.02128
N4    3  -0.034339  -0.265960   0.082079    11.00000     0.09617     0.06492 =
      0.05153     0.01742     0.02223     0.02015
N5    3   0.071529  -0.132772   0.315668    11.00000     0.06695     0.07196 =
      0.05606     0.02688     0.02127     0.02659
N6    3   0.051325  -0.077600   0.380310    11.00000     0.07428     0.06314 =
      0.05086     0.02993     0.01806     0.02974
C2    1  -0.044355  -0.212896   0.149855    11.00000     0.05626     0.03954 =
      0.04722     0.01536     0.01593     0.01535
C3    1  -0.426840   0.286112   0.142706    11.00000     0.07671     0.05149 =
      0.06025     0.03092     0.00846     0.03133
N7    3  -0.012830  -0.274151   0.199193    11.00000     0.06396     0.05573 =
      0.05761     0.02507     0.02334     0.01512
C4    1  -0.401486   0.005582   0.192281    11.00000     0.04856     0.05809 =
      0.05637     0.02472     0.01371     0.01434
C5    1  -0.141882  -0.263236   0.288046    11.00000     0.07490     0.04594 =
      0.06501     0.02659     0.02826     0.01604
C6    1   0.151115   0.023285   0.425544    11.00000     0.06641     0.06723 =
      0.04057     0.02261     0.01509     0.02844
C7    1  -0.104654  -0.055458   0.115095    11.00000     0.08730     0.05762 =
      0.05275     0.02889     0.03210     0.03160
C8    1   0.028926  -0.374533   0.183222    11.00000     0.09284     0.04564 =
      0.06059     0.02371     0.02551     0.02240
AFIX 43
H8    2   0.048320  -0.411308   0.216818    11.00000    -1.20000
AFIX 0
N8    3  -0.364608   0.226814   0.165839    11.00000     0.07407     0.06469 =
      0.06391     0.02310     0.01881     0.01631
C9    1   0.275916   0.019935   0.469914    11.00000     0.06807     0.08496 =
      0.05072     0.02436     0.00837     0.03230
AFIX 43
H9    2   0.298709  -0.048794   0.470562    11.00000    -1.20000
AFIX 0
C10   1  -0.062662  -0.116232   0.397644    11.00000     0.08121     0.06101 =
      0.05209     0.02969     0.02848     0.02600
C11   1  -0.537455  -0.162219   0.197616    11.00000     0.04394     0.06561 =
      0.08603     0.03913     0.01334     0.00403
C12   1   0.007639  -0.366573   0.067755    11.00000     0.11153     0.05457 =
      0.04973     0.00666     0.03017     0.01724
AFIX 43
H12   2   0.012713  -0.398544   0.023164    11.00000    -1.20000
AFIX 0
C13   1   0.111885   0.126594   0.421717    11.00000     0.05948     0.05637 =
      0.04314     0.02140     0.00914     0.01209
C14   1   0.333715   0.214529   0.511900    11.00000     0.07769     0.08985 =
      0.05768     0.02460     0.00306     0.00878
AFIX 43
H14   2   0.394247   0.278656   0.540648    11.00000    -1.20000
AFIX 0
C15   1  -0.326173   0.229654   0.364473    11.00000     0.07960     0.06067 =
      0.06086     0.01895     0.03117     0.02417
C16   1   0.070664   0.159142   0.176361    11.00000     0.05626     0.08483 =
      0.08627     0.02804     0.03225     0.00368
C17   1  -0.160779  -0.208891   0.353371    11.00000     0.07787     0.06433 =
      0.06254     0.03341     0.03133     0.01294
C18   1  -0.331050   0.124523   0.386016    11.00000     0.07816     0.08146 =
      0.08137     0.03239     0.03978     0.02034
AFIX 137
H18A  2  -0.398555   0.121355   0.411072    11.00000    -1.50000
H18B  2  -0.242052   0.123826   0.415069    11.00000    -1.50000
H18C  2  -0.355639   0.061675   0.345577    11.00000    -1.50000
AFIX 0
C19   1  -0.034975   0.242094   0.380661    11.00000     0.06871     0.04749 =
      0.05110     0.01738     0.00842     0.01751
C20   1   0.042865  -0.422643   0.117095    11.00000     0.12568     0.04650 =
      0.06228     0.01600     0.03365     0.03685
AFIX 43
H20   2   0.074350  -0.489254   0.106695    11.00000    -1.20000
AFIX 0
C21   1   0.210713   0.222730   0.468629    11.00000     0.07169     0.06184 =
      0.05188     0.01275     0.00139     0.01118
AFIX 43
H21   2   0.190516   0.292682   0.469635    11.00000    -1.20000
AFIX 0
C22   1  -0.162703   0.114345   0.057568    11.00000     0.10191     0.07771 =
      0.05733     0.03923     0.03534     0.03902
C23   1   0.367968   0.113587   0.513162    11.00000     0.05893     0.10583 =
      0.06181     0.02439     0.00064     0.02678
AFIX 43
H23   2   0.450795   0.108300   0.542295    11.00000    -1.20000
AFIX 0
C24   1  -0.177470   0.394353   0.321422    11.00000     0.10649     0.04557 =
      0.07982     0.02620     0.02767     0.02249
C25   1  -0.319023   0.059567   0.020079    11.00000     0.10259     0.09931 =
      0.05721     0.03013     0.00651     0.02806
AFIX 137
H25A  2  -0.344549   0.069820  -0.025165    11.00000    -1.50000
H25B  2  -0.376183   0.093701   0.046737    11.00000    -1.50000
H25C  2  -0.331319  -0.018104   0.015886    11.00000    -1.50000
AFIX 0
C26   1  -0.073380   0.425422   0.282567    11.00000     0.12406     0.06513 =
      0.09515     0.03983     0.03098    -0.00369
AFIX 137
H26A  2  -0.064493   0.502875   0.286271    11.00000    -1.50000
H26B  2  -0.106237   0.383130   0.234652    11.00000    -1.50000
H26C  2   0.014913   0.409461   0.302767    11.00000    -1.50000
AFIX 0
C27   1  -0.492728   0.367878   0.114042    11.00000     0.09322     0.06517 =
      0.08008     0.03969     0.00964     0.04180
C28   1  -0.717668  -0.345796   0.370637    11.00000     0.11793     0.08895 =
      0.13043     0.04195     0.01584     0.03784
AFIX 43
H28   2  -0.725723  -0.279103   0.360619    11.00000    -1.20000
AFIX 0
C29   1  -0.467403   0.233591   0.323321    11.00000     0.09016     0.10544 =
      0.12875     0.03042     0.05733     0.04569
AFIX 137
H29A  2  -0.531599   0.226399   0.349722    11.00000    -1.50000
H29B  2  -0.494629   0.174010   0.281050    11.00000    -1.50000
H29C  2  -0.466694   0.302894   0.312759    11.00000    -1.50000
AFIX 0
C30   1  -0.135369   0.236156   0.062076    11.00000     0.13751     0.09530 =
      0.10450     0.07313     0.06351     0.04920
AFIX 137
H30A  2  -0.160612   0.244522   0.016339    11.00000    -1.50000
H30B  2  -0.039098   0.265979   0.083764    11.00000    -1.50000
H30C  2  -0.189103   0.275036   0.088978    11.00000    -1.50000
AFIX 0
C31   1  -0.666333  -0.112292   0.191098    11.00000     0.04210     0.13501 =
      0.29949     0.08922     0.04975     0.01849
AFIX 137
H31A  2  -0.745498  -0.169855   0.178267    11.00000    -1.50000
H31B  2  -0.674201  -0.074440   0.156229    11.00000    -1.50000
H31C  2  -0.661387  -0.060781   0.234646    11.00000    -1.50000
AFIX 0
C32   1   0.141113   0.144246   0.243747    11.00000     0.07552     0.12513 =
      0.09532     0.03465     0.02177     0.01931
AFIX 137
H32A  2   0.236299   0.179258   0.257617    11.00000    -1.50000
H32B  2   0.135325   0.066710   0.239344    11.00000    -1.50000
H32C  2   0.097407   0.177109   0.277985    11.00000    -1.50000
AFIX 0
C33   1   0.161071   0.126106   0.126057    11.00000     0.07774     0.18052 =
      0.11994     0.06027     0.05701     0.02443
AFIX 137
H33A  2   0.254131   0.165332   0.147727    11.00000    -1.50000
H33B  2   0.124382   0.144765   0.084158    11.00000    -1.50000
H33C  2   0.160240   0.047926   0.115383    11.00000    -1.50000
AFIX 0
C34   1  -0.646588  -0.527098   0.406248    11.00000     0.23246     0.13460 =
      0.13507     0.07948     0.08234     0.07906
AFIX 43
H34   2  -0.617810  -0.587392   0.419476    11.00000    -1.20000
AFIX 0
C35   1  -0.143871   0.477686   0.394477    11.00000     0.16255     0.05541 =
      0.10082     0.00900     0.04438     0.01890
AFIX 137
H35A  2  -0.136752   0.551700   0.390695    11.00000    -1.50000
H35B  2  -0.057921   0.469372   0.422761    11.00000    -1.50000
H35C  2  -0.216123   0.463618   0.415238    11.00000    -1.50000
AFIX 0
C36   1  -0.527454  -0.226423   0.248369    11.00000     0.10276     0.20062 =
      0.19781     0.15797    -0.00689    -0.04308
AFIX 137
H36A  2  -0.610483  -0.280137   0.235594    11.00000    -1.50000
H36B  2  -0.515486  -0.177232   0.293636    11.00000    -1.50000
H36C  2  -0.449912  -0.263504   0.248765    11.00000    -1.50000
AFIX 0
C37   1  -0.591719   0.302412   0.045633    11.00000     0.14116     0.17997 =
      0.10826     0.07775     0.00115     0.06095
AFIX 137
H37A  2  -0.638565   0.351568   0.024044    11.00000    -1.50000
H37B  2  -0.658057   0.249982   0.052792    11.00000    -1.50000
H37C  2  -0.541873   0.263798   0.016292    11.00000    -1.50000
AFIX 0
C38   1  -0.549414  -0.243287   0.128196    11.00000     0.11288     0.08768 =
      0.14568     0.00846     0.03584    -0.02286
AFIX 137
H38A  2  -0.632134  -0.297554   0.114743    11.00000    -1.50000
H38B  2  -0.470804  -0.279407   0.131778    11.00000    -1.50000
H38C  2  -0.552883  -0.204279   0.094070    11.00000    -1.50000
AFIX 0
C39   1  -0.699500  -0.451949   0.447631    11.00000     0.24133     0.17683 =
      0.09422     0.05448     0.07756     0.02999
AFIX 43
H39   2  -0.705725  -0.461677   0.489680    11.00000    -1.20000
AFIX 0
C40   1  -0.681854  -0.425398   0.329813    11.00000     0.17854     0.16681 =
      0.14269     0.09452     0.07948     0.05640
AFIX 43
H40   2  -0.687096  -0.422359   0.285092    11.00000    -1.20000
AFIX 0
C41   1  -0.378109   0.453954   0.106428    11.00000     0.12966     0.11582 =
      0.26314     0.13446     0.05861     0.04619
AFIX 137
H41A  2  -0.420396   0.507757   0.087698    11.00000    -1.50000
H41B  2  -0.329847   0.416159   0.075905    11.00000    -1.50000
H41C  2  -0.314177   0.490444   0.151038    11.00000    -1.50000
AFIX 0
C42   1  -0.637501  -0.512279   0.348130    11.00000     0.20504     0.14486 =
      0.14081     0.07961     0.08594     0.08324
AFIX 43
H42   2  -0.600477  -0.561478   0.319178    11.00000    -1.20000
AFIX 0
C43   1  -0.743562  -0.363172   0.429640    11.00000     0.15719     0.12158 =
      0.17130    -0.02877     0.06465     0.02527
AFIX 43
H43   2  -0.788570  -0.316851   0.455643    11.00000    -1.20000
AFIX 0
C44   1  -0.561620   0.427668   0.165765    11.00000     0.18327     0.09598 =
      0.15878     0.05012     0.07129     0.08427
AFIX 137
H44A  2  -0.605997   0.482042   0.148674    11.00000    -1.50000
H44B  2  -0.493410   0.463493   0.209164    11.00000    -1.50000
H44C  2  -0.629150   0.375393   0.172264    11.00000    -1.50000
AFIX 0
HKLF 5
END
