TITL CrystalPilot n0000 in I 41/a m d :2
REM CrystalPilot node n0000 tool=import
CELL 1.54178 15.85170 15.85170 57.50380 90.0000 90.0000 90.0000
ZERR 4 0.00010 0.00010 0.00130 0.0000 0.0000 0.0000
LATT 2
SYMM -Y+1/4,X+3/4,Z+1/4
SYMM Y+1/4,-X+1/4,Z+3/4
SYMM X,-Y,-Z
SYMM -X,Y+1/2,-Z
SYMM -X,-Y+1/2,Z
SYMM Y+1/4,X+3/4,-Z+1/4
SYMM -Y+1/4,-X+1/4,-Z+3/4
SFAC C O Fe Zr
UNIT 208.0 112.0 8.0 16.0

WGHT 0.100000 0.000000
FVAR 0.12928
FE01  3   0.000000   0.250000   0.331558    10.25000     0.05000
ZR02  4   0.110254   0.360254   0.375000    10.50000     0.05000
O004  2   0.126185   0.250000   0.350603    10.50000     0.05000
O005  2   0.089545   0.335335   0.437119    11.00000     0.05000
O006  2   0.161043   0.405156   0.408041    11.00000     0.05000
O007  2   0.075308   0.500823   0.374476    11.00000     0.05000
C008  1   0.217600   0.386704   0.468554    11.00000     0.05000
C009  1   0.214174   0.414935   0.445929    11.00000     0.05000
C00A  1   0.148741   0.384050   0.429113    11.00000     0.05000
C00B  1   0.500000   0.472660   0.477736    10.50000     0.05000
C00D  1   0.345115   0.468091   0.474555    11.00000     0.05000
C00E  1   0.422618   0.486818   0.488676    11.00000     0.05000
C00F  1   0.273126   0.472724   0.437652    11.00000     0.05000
HKLF 4
END
