TITL CrystalPilot n0053 in C 2 2 21
REM CrystalPilot node n0053 tool=refine
REM R1 = 0.0561 wR2 = 0.1725 GooF = 1.536
CELL 0.68914 15.79000 32.31000 11.86000 90.0000 90.0000 90.0000
ZERR 8 0 0 0 0 0 0
LATT -7
SYMM X,-Y,-Z
SYMM -X,Y,-Z+1/2
SYMM -X,-Y,Z+1/2
SFAC C O Cu
UNIT 210.8 40.0 8.0

WGHT 0.100000 0.000000
FVAR 0.27923
CU1   3   0.069050   0.019831   0.363568    11.00000     0.03966     0.02049 =
      0.08316     0.00096    -0.01868    -0.00187
C1    1   0.071587   0.294471   0.210810    11.00000     0.03326     0.01677 =
      0.04893    -0.00426     0.01137    -0.00110
C2    1   0.000000   0.272286   0.250000    10.50000     0.03289     0.01398 =
      0.05096     0.00000     0.00658    -0.00000
C3    1   0.000000   0.405831   0.250000    10.50000     0.08320     0.00942 =
      0.04672     0.00000     0.00549    -0.00000
O1    2   0.158928   0.046684   0.449526    11.00000     0.04786     0.04875 =
      0.07576     0.00233    -0.02233    -0.02152
C4    1   0.000000   0.360065   0.250000    10.50000     0.04697     0.01595 =
      0.04882     0.00000     0.00965    -0.00000
C5    1   0.071979   0.337808   0.211423    11.00000     0.03913     0.02149 =
      0.04523    -0.00233     0.00677    -0.00533
O2    2   0.031443   0.076265   0.335922    11.00000     0.08505     0.02057 =
      0.09357     0.00306    -0.02986     0.00457
C6    1   0.000000   0.140379   0.250000    10.50000     0.05841     0.01591 =
      0.05550     0.00000    -0.01322    -0.00000
O3    2   0.000000  -0.002154   0.250000    10.50000     0.09939     0.02149 =
      0.16805     0.00000    -0.08284    -0.00000
C7    1   0.217195   0.218241   0.062933    11.00000     0.11422     0.10907 =
      0.04338     0.00230     0.01331     0.07913
O4    2   0.122861   0.033700   0.628820    11.00000     0.05626     0.03547 =
      0.08943    -0.01199     0.03052    -0.02278
C8    1   0.148646   0.271235   0.175372    11.00000     0.04344     0.02962 =
      0.04777    -0.00620     0.01587     0.00114
C9    1   0.000000   0.226637   0.250000    10.50000     0.03961     0.01766 =
      0.05141     0.00000     0.00346    -0.00000
C10   1   0.229566   0.083063   0.592106    11.00000     0.04116     0.03308 =
      0.05693    -0.00052     0.00020    -0.01221
C11   1   0.145072   0.362594   0.168584    11.00000     0.04517     0.03628 =
      0.04955    -0.00159     0.00290    -0.01954
C12   1   0.168643   0.362224   0.054874    11.00000     0.03933     0.04325 =
      0.04777    -0.00068     0.00527    -0.01444
C13   1   0.121496   0.333484   0.724990    11.00000     0.13479     0.14695 =
      0.05681    -0.01026    -0.00682     0.09593
C14   1   0.145496   0.243007   0.085194    11.00000     0.09161     0.04911 =
      0.04240    -0.00399     0.01570     0.02859
C15   1   0.207165   0.249708   0.718536    11.00000     0.05358     0.10368 =
      0.06799    -0.01266    -0.01191     0.02985
C16   1   0.230424   0.389941   0.017726    11.00000     0.04536     0.03338 =
      0.05935    -0.00308     0.01402    -0.01199
C17   1   0.054468   0.161844   0.321606    11.00000     0.05907     0.02466 =
      0.06930    -0.00234    -0.02195     0.00200
C18   1   0.055206   0.204431   0.319396    11.00000     0.04379     0.02310 =
      0.06166    -0.00065    -0.01416     0.00268
C19   1   0.222090   0.274572   0.236216    11.00000     0.03698     0.07589 =
      0.07396    -0.00629     0.00822     0.01411
C20   1   0.002991   0.427532   0.150635    11.00000     0.15978     0.02137 =
      0.04528     0.00252     0.01632    -0.00080
O5    2   0.030462   0.000000   0.000000    10.50000     0.03444     0.13050 =
      0.16132    -0.03245    -0.00000    -0.00000
C21   1   0.210246   0.278903   0.630988    11.00000     0.10206     0.13359 =
      0.05210    -0.00996    -0.02480     0.08538
C22   1   0.187761   0.388157   0.244025    11.00000     0.07689     0.05016 =
      0.04698    -0.00491    -0.00595    -0.02900
C23   1   0.000000   0.492334   0.250000    10.50000     0.59702     0.02169 =
      0.05110     0.00000     0.07260    -0.00000
C24   1   0.000000   0.092385   0.250000    10.50000     0.06431     0.02084 =
      0.07318     0.00000    -0.02247    -0.00000
C25   1   0.250950   0.084385   0.707977    11.00000     0.06771     0.04692 =
      0.05681     0.00174     0.00432    -0.03216
C26   1   0.006110   0.470158   0.149979    11.00000     0.37168     0.02389 =
      0.04834     0.00571     0.04104     0.00497
C27   1   0.109327   0.317348   0.512405    11.00000     0.08437     0.13564 =
      0.19034     0.02666     0.00085     0.04044
C29X  1   0.164986   0.052556   0.553694    11.00000     0.03853     0.02593 =
      0.07472    -0.00009     0.00729    -0.00842
C30X  1   0.129454   0.306155   0.616138    11.00000     0.13397     0.19486 =
      0.04800    -0.03600    -0.03372     0.12705
C32X  2   0.051621   0.281885   0.596262    11.00000     0.13654     0.37432 =
      0.15170    -0.16364    -0.09976     0.17501
C34X  1   0.174277   0.351518   0.525351    10.85000     0.20643     0.18405 =
      0.07496     0.06015     0.04401     0.15707
HKLF 4
END
