TITL CrystalPilot n0008 in I 41/a m d :2
REM CrystalPilot node n0008 tool=refine
REM R1 = 0.1044 wR2 = 0.3117 GooF = 2.318
CELL 1.54178 15.85170 15.85170 57.50380 90.0000 90.0000 90.0000
ZERR 4 0.00010 0.00010 0.00130 0.0000 0.0000 0.0000
LATT 2
SYMM -Y+1/4,X+3/4,Z+1/4
SYMM Y+1/4,-X+1/4,Z+3/4
SYMM X,-Y,-Z
SYMM -X,Y+1/2,-Z
SYMM -X,-Y+1/2,Z
SYMM Y+1/4,X+3/4,-Z+1/4
SYMM -Y+1/4,-X+1/4,-Z+3/4
SFAC C O Zr
UNIT 272.0 128.0 24.0

WGHT 0.100000 0.000000
FVAR 0.12722
FE01  3   0.000000   0.250000   0.331549    10.25000     0.05407     0.03139 =
      0.03611     0.00000    -0.00000    -0.00000
ZR02  3   0.110263   0.360263   0.375000    10.50000     0.06247     0.06247 =
      0.04241    -0.00312     0.00312    -0.02926
O004  2   0.126624   0.250000   0.350629    10.50000     0.04786     0.07385 =
      0.04942     0.00000     0.01180    -0.00000
O005  2   0.088968   0.335216   0.436943    11.00000     0.05945     0.09805 =
      0.06780    -0.02061    -0.01533    -0.01197
O006  2   0.161639   0.403237   0.408170    11.00000     0.10981     0.14468 =
      0.05847    -0.01479    -0.01238    -0.06637
O007  2   0.074744   0.500454   0.374366    11.00000     0.35211     0.06428 =
      0.06981    -0.00944     0.02984    -0.08880
C008  1   0.216764   0.386494   0.468592    11.00000     0.06531     0.13793 =
      0.06302    -0.03402    -0.00758    -0.00779
C009  1   0.213204   0.416395   0.445902    11.00000     0.06366     0.10916 =
      0.07228    -0.02563    -0.00286    -0.01437
C00A  1   0.149156   0.383397   0.429059    11.00000     0.06191     0.10829 =
      0.06067    -0.00876    -0.00348    -0.01506
C00B  1   0.500000   0.471006   0.477626    10.50000     0.05225     0.14043 =
      0.07788    -0.04561    -0.00000    -0.00000
C00D  1   0.345262   0.468187   0.474509    11.00000     0.04754     0.13028 =
      0.07670    -0.04829    -0.00588    -0.00035
C00E  1   0.422273   0.487477   0.488114    11.00000     0.05022     0.13694 =
      0.06864    -0.04607    -0.00110    -0.00890
C00F  1   0.273282   0.474442   0.437670    11.00000     0.07284     0.11904 =
      0.08646    -0.01352    -0.01350    -0.02776
O5X   2   0.000000   0.156627   0.356495    10.50000     0.06209     0.03260 =
      0.04002     0.00259    -0.00000    -0.00000
C8X   1   0.161857   0.032916   0.733224    11.00000     0.12903     0.05885 =
      0.07753    -0.00390    -0.03625     0.00346
C9X   1   0.160539   0.001565   0.048262    11.00000     0.07177     0.12825 =
      0.08448    -0.01980    -0.01509    -0.01989
HKLF 4
END
