TITL CrystalPilot n0012 in I 41/a m d :2
REM CrystalPilot node n0012 tool=refine
REM R1 = 0.0618 wR2 = 0.1947 GooF = 1.413
CELL 1.54178 15.85170 15.85170 57.50380 90.0000 90.0000 90.0000
ZERR 4 0.00010 0.00010 0.00130 0.0000 0.0000 0.0000
LATT 2
SYMM -Y+1/4,X+3/4,Z+1/4
SYMM Y+1/4,-X+1/4,Z+3/4
SYMM X,-Y,-Z
SYMM -X,Y+1/2,-Z
SYMM -X,-Y+1/2,Z
SYMM Y+1/4,X+3/4,-Z+1/4
SYMM -Y+1/4,-X+1/4,-Z+3/4
SFAC C H O Zr
UNIT 272.0 144.0 128.0 24.0

WGHT 0.100000 0.000000
FVAR 0.12853
FE01  4   0.000000   0.250000   0.331564    10.25000     0.05441     0.03140 =
      0.03586     0.00000    -0.00000    -0.00000
ZR02  4   0.110255   0.360255   0.375000    10.50000     0.06230     0.06230 =
      0.04251    -0.00306     0.00306    -0.02899
O004  3   0.126317   0.250000   0.350585    10.50000     0.04738     0.07422 =
      0.05076     0.00000     0.01215    -0.00000
O005  3   0.089318   0.335498   0.437113    11.00000     0.06089     0.10330 =
      0.06750    -0.02188    -0.01667    -0.01476
O006  3   0.161238   0.404808   0.408065    11.00000     0.10445     0.14552 =
      0.05898    -0.01092    -0.01195    -0.06085
O007  3   0.075187   0.500895   0.374475    11.00000     0.35092     0.06990 =
      0.06978    -0.00920     0.03756    -0.09864
C008  1   0.217683   0.386743   0.468519    11.00000     0.05810     0.11932 =
      0.06633    -0.02200    -0.00535    -0.00526
AFIX 43
H008  2   0.176752   0.349931   0.474112    11.00000    -1.20000
AFIX 0
C009  1   0.213991   0.415281   0.446006    11.00000     0.06266     0.10650 =
      0.06839    -0.02632    -0.00326    -0.01329
C00A  1   0.148616   0.383814   0.429135    11.00000     0.06430     0.10456 =
      0.06421    -0.01413    -0.00616    -0.01790
C00B  1   0.500000   0.472044   0.477718    10.50000     0.05054     0.14257 =
      0.08179    -0.05198    -0.00000    -0.00000
AFIX 43
H00B  2   0.500000   0.450703   0.462653    10.50000    -1.20000
AFIX 0
C00D  1   0.345035   0.468442   0.474580    11.00000     0.05115     0.12958 =
      0.07675    -0.04730    -0.00521    -0.00121
C00E  1   0.422336   0.487416   0.488569    11.00000     0.05260     0.12900 =
      0.07118    -0.04363    -0.00094    -0.00699
C00F  1   0.272611   0.473480   0.437605    11.00000     0.07896     0.13789 =
      0.08011    -0.01378    -0.00934    -0.04131
AFIX 43
H00F  2   0.267831   0.495517   0.422675    11.00000    -1.20000
AFIX 0
O5X   3   0.000000   0.156475   0.356615    10.50000     0.06046     0.03198 =
      0.04072     0.00287    -0.00000    -0.00000
C8X   1   0.163018   0.032503   0.732799    11.00000     0.13407     0.06181 =
      0.07013    -0.00277    -0.03029    -0.00045
AFIX 43
H8X   2   0.143817   0.034876   0.748067    11.00000    -1.20000
AFIX 0
C9X   1   0.161412   0.002293   0.047782    11.00000     0.07427     0.13359 =
      0.08580    -0.01197    -0.01179    -0.02834
AFIX 43
H9X   2   0.120677  -0.034743   0.053371    11.00000    -1.20000
AFIX 0
HKLF 4
END
