TITL CrystalPilot n0006 in P -1
REM CrystalPilot node n0006 tool=refine
REM R1 = 0.1312 wR2 = 0.3717 GooF = 2.775
CELL 0.71073 10.15540 12.70750 20.80080 107.6910 100.3150 96.2330
ZERR 2 0.00170 0.00210 0.00440 0.0030 0.0030 0.0020
LATT 1
SFAC C N P Ni La
UNIT 88.0 16.0 4.0 2.0 2.0

WGHT 0.100000 0.000000
FVAR 0.18704
LA01  5   0.429111   0.291515   0.269820    11.00000     0.04166
NI02  4   0.466746   0.070288   0.207509    11.00000     0.04510
P003  3   0.260954   0.052176   0.145790    11.00000     0.04722
P004  3   0.511598   0.071662   0.314966    11.00000     0.04858
N005  2   0.251867   0.280508   0.169861    11.00000     0.04574
N006  2   0.381956   0.246144   0.375226    11.00000     0.05205
N007  2   0.629085   0.297881   0.218641    11.00000     0.05226
C008  1   0.295953   0.494166   0.269334    11.00000     0.04736
N009  2   0.116699   0.349193   0.083438    11.00000     0.06683
N00A  2   0.246280   0.448205   0.315617    11.00000     0.06034
N00B  2   0.328825   0.456957   0.379757    11.00000     0.05994
C00C  1   0.194676   0.363384   0.149541    11.00000     0.04797
C00D  1   0.571851  -0.143712   0.142341    11.00000     0.05918
N00E  2   0.211593   0.471260   0.199237    11.00000     0.05608
C00F  1   0.592530   0.187569   0.192747    11.00000     0.05534
C00G  1   0.431451   0.551920   0.289286    11.00000     0.05378
C00H  1   0.275247   0.401923   0.425621    11.00000     0.05322
C00I  1   0.220340   0.172706   0.115944    11.00000     0.05600
C00J  1   0.152953   0.559937   0.184390    11.00000     0.06336
N00K  2   0.530841  -0.061785   0.165495    11.00000     0.06929
C00L  1   0.193809   0.452381   0.469543    11.00000     0.06633
C00M  1   0.462639   0.513816   0.397154    11.00000     0.06221
C00N  1   0.732946   0.358527   0.198147    11.00000     0.06272
C00O  1   0.059209   0.435688   0.067863    11.00000     0.06716
C00P  1   0.309215   0.295094   0.422022    11.00000     0.05236
C00Q  1   0.175424   0.298435   0.512046    11.00000     0.07962
C00R  1   0.690259   0.134771   0.364523    11.00000     0.06237
C00S  1   0.105883   0.014988   0.175176    11.00000     0.07029
C00T  1   0.514462   0.561899   0.353058    11.00000     0.06162
C00U  1   0.714777   0.263734   0.385286    11.00000     0.07362
C00V  1   0.417308   0.139113   0.380952    11.00000     0.05608
C00W  1   0.075491   0.540118   0.115607    11.00000     0.06811
C00X  1   0.256708   0.244672   0.468483    11.00000     0.06306
C00Y  1   0.222473  -0.056562   0.056021    11.00000     0.06900
C00Z  1   0.144376   0.397559   0.514218    11.00000     0.07645
C010  1   0.496604  -0.073159   0.321204    11.00000     0.07422
C011  1   0.332946  -0.042120   0.019367    11.00000     0.07921
C012  1   0.354093  -0.145056   0.281299    11.00000     0.08880
C013  1   0.604929  -0.253207   0.114022    11.00000     0.07140
C014  1   1.078525   0.710547   0.366184    11.00000     0.10670
C015  1   0.794787   0.091621   0.323226    11.00000     0.08596
C016  1   0.201642  -0.175740   0.061753    11.00000     0.08513
C017  1   0.856534   0.302369   0.185389    11.00000     0.12134
C018  1   0.106795   0.101765   0.244903    11.00000     0.10012
C019  1  -0.036025  -0.000380   0.123274    11.00000     0.11094
C01A  1   1.054009   0.936836   0.407428    11.00000     0.11966
C01B  1   0.542055  -0.082985   0.395313    11.00000     0.09668
C01C  1   0.777215   0.477043   0.248984    11.00000     0.11917
C01D  1   0.640199  -0.255234   0.047351    11.00000     0.12091
C01E  1   0.669053   0.372821   0.125515    11.00000     0.11673
C01F  1   1.145322   0.905463   0.447959    11.00000     0.12943
C01G  1   1.002210   0.746380   0.326812    11.00000     0.12134
C01H  1   0.486270  -0.348313   0.100576    11.00000     0.12107
C01I  1   0.980493   0.854585   0.346981    11.00000     0.15118
C01J  1   1.175327   0.786520   0.424326    11.00000     0.15487
C01K  1   0.731129  -0.257875   0.167826    11.00000     0.11536
HKLF 4
END
