TITL CrystalPilot n0029 in C 2 2 21
REM CrystalPilot node n0029 tool=refine
REM R1 = 0.0546 wR2 = 0.1699 GooF = 1.512
CELL 0.68914 15.79000 32.31000 11.86000 90.0000 90.0000 90.0000
ZERR 8 0 0 0 0 0 0
LATT -7
SYMM X,-Y,-Z
SYMM -X,Y,-Z+1/2
SYMM -X,-Y,Z+1/2
SFAC C O Cu
UNIT 219.2 32.0 8.0

WGHT 0.100000 0.000000
FVAR 0.28032
CU1   3   0.069030   0.019834   0.363629    11.00000     0.03966     0.02062 =
      0.08302     0.00085    -0.01850    -0.00178
C1    1   0.071553   0.294456   0.210791    11.00000     0.03268     0.01764 =
      0.04898    -0.00421     0.01034    -0.00156
C2    1   0.000000   0.272130   0.250000    10.50000     0.03271     0.01519 =
      0.04955     0.00000     0.00546    -0.00000
C3    1   0.000000   0.405770   0.250000    10.50000     0.08356     0.00986 =
      0.04782     0.00000     0.00435    -0.00000
O1    2   0.159209   0.046580   0.449471    11.00000     0.04908     0.04747 =
      0.07743     0.00341    -0.02330    -0.02162
C4    1   0.000000   0.360006   0.250000    10.50000     0.04693     0.01625 =
      0.04794     0.00000     0.00895    -0.00000
C5    1   0.071839   0.337802   0.211338    11.00000     0.03864     0.02264 =
      0.04492    -0.00286     0.00644    -0.00461
O2    2   0.031580   0.076339   0.335799    11.00000     0.08445     0.02118 =
      0.09177     0.00187    -0.02874     0.00470
C6    1   0.000000   0.140492   0.250000    10.50000     0.05718     0.01645 =
      0.05950     0.00000    -0.01271    -0.00000
O3    2   0.000000  -0.002084   0.250000    10.50000     0.10229     0.02360 =
      0.15667     0.00000    -0.08029    -0.00000
C7    1   0.218095   0.218575   0.063345    11.00000     0.12008     0.11357 =
      0.04161     0.00134     0.01352     0.08299
O4    2   0.123007   0.033731   0.628777    11.00000     0.05592     0.03635 =
      0.09170    -0.01215     0.03006    -0.02216
C8    1   0.148293   0.271210   0.175406    11.00000     0.04330     0.02997 =
      0.04845    -0.00642     0.01538     0.00119
C9    1   0.000000   0.226634   0.250000    10.50000     0.04022     0.01766 =
      0.05091     0.00000     0.00318    -0.00000
C10   1   0.229487   0.083096   0.592440    11.00000     0.04044     0.03306 =
      0.05709    -0.00099     0.00084    -0.01171
C11   1   0.144933   0.362567   0.168888    11.00000     0.04554     0.03582 =
      0.04885    -0.00165     0.00223    -0.01961
C12   1   0.168609   0.362080   0.055380    11.00000     0.04031     0.04514 =
      0.04816    -0.00179     0.00662    -0.01509
C13   1   0.122259   0.333759   0.724240    11.00000     0.13823     0.14943 =
      0.05933    -0.01330    -0.00767     0.10000
C14   1   0.146212   0.242925   0.085560    11.00000     0.09447     0.04839 =
      0.04241    -0.00380     0.01496     0.02920
C15   1   0.206986   0.249968   0.717988    11.00000     0.05650     0.10406 =
      0.06711    -0.01301    -0.01232     0.03351
C16   1   0.229805   0.389945   0.017126    11.00000     0.04538     0.03272 =
      0.05815    -0.00305     0.01331    -0.01092
C17   1   0.054402   0.161756   0.321437    11.00000     0.06018     0.02507 =
      0.06925    -0.00281    -0.02104     0.00222
C18   1   0.055177   0.204467   0.319278    11.00000     0.04514     0.02341 =
      0.06235    -0.00077    -0.01345     0.00265
C19   1   0.222334   0.274413   0.237146    11.00000     0.03604     0.07488 =
      0.07501    -0.00819     0.00662     0.01301
C20   1   0.003156   0.427510   0.150186    11.00000     0.16243     0.02098 =
      0.04358     0.00216     0.01494    -0.00072
O5    2   0.030668   0.000000   0.000000    10.50000     0.03820     0.12762 =
      0.15231    -0.03340    -0.00000    -0.00000
C21   1   0.210309   0.278862   0.629829    11.00000     0.10088     0.12826 =
      0.05321    -0.00856    -0.02219     0.08361
C22   1   0.188320   0.388215   0.244262    11.00000     0.08015     0.04956 =
      0.04770    -0.00378    -0.00771    -0.03076
C23   1   0.000000   0.492000   0.250000    10.50000     0.69313     0.02045 =
      0.05128     0.00000     0.08341    -0.00000
C24   1   0.000000   0.092588   0.250000    10.50000     0.06164     0.02444 =
      0.07285     0.00000    -0.01933    -0.00000
C25   1   0.251146   0.084292   0.707582    11.00000     0.06605     0.04739 =
      0.05605     0.00187     0.00499    -0.03029
C26   1   0.005889   0.470152   0.149870    11.00000     0.39258     0.02280 =
      0.04902     0.00577     0.04039     0.00662
C27   1   0.106344   0.315994   0.512548    11.00000     0.09877     0.12592 =
      0.21887     0.00273    -0.03641     0.04381
C29X  1   0.164724   0.052576   0.553448    11.00000     0.03902     0.02542 =
      0.07566    -0.00041     0.00677    -0.00801
C30X  1   0.129189   0.306018   0.616745    11.00000     0.13824     0.19602 =
      0.05004    -0.03615    -0.03488     0.13017
C32X  1   0.049637   0.280459   0.599628    11.00000     0.11150     0.29251 =
      0.12852    -0.12933    -0.08023     0.13742
C34X  1   0.171593   0.350220   0.525164    10.90000     0.24831     0.22136 =
      0.07306     0.06127     0.04708     0.19739
HKLF 4
END
