TITL CrystalPilot n0095 in P -1
REM CrystalPilot node n0095 tool=refine
REM R1 = 0.07 wR2 = 0.2181 GooF = 1.075
CELL 0.71073 10.15540 12.70750 20.80080 107.6910 100.3150 96.2330
ZERR 2 0.00170 0.00210 0.00440 0.0030 0.0030 0.0020
LATT 1
SFAC C H N P Ni La
UNIT 96.1 50.0 8.0 4.0 2.0 2.0

DFIX 1.3900 0.010 C28 C40
DFIX 1.3900 0.010 C40 C42
DFIX 1.3900 0.010 C42 C34
DFIX 1.3900 0.010 C34 C39
DFIX 1.3900 0.010 C39 C43
DFIX 1.3900 0.010 C43 C28
DFIX 1.3900 0.010 C28B C40B
DFIX 1.3900 0.010 C40B C42B
DFIX 1.3900 0.010 C42B C34B
DFIX 1.3900 0.010 C34B C39B
DFIX 1.3900 0.010 C39B C43B
DFIX 1.3900 0.010 C43B C28B
FLAT 0.01 C28 C40 C42 C34 C39 C43
FLAT 0.01 C28B C40B C42B C34B C39B C43B
SADI 0.020 P1 C22 P1 C16 P1 C22B P1 C16B
SADI 0.020 C22 C25 C22 C30 C16 C33 C16 C32 C22B C25B C22B C30B C16B C33B =
 C16B C32B
SIMU 0.010 0.020 P1 C22 C25 C30 C16 C33 C32 C22B C25B C30B C16B C33B C32B
SADI 0.020 C11 C36 C11 C38 C11 C31 C11 C36B C11 C38B C11 C31B
SIMU 0.010 0.020 C11 C36 C38 C31 C36B C38B C31B
SADI 0.020 C27 C44 C27 C37 C27 C41 C27 C44B C27 C37B C27 C41B
SIMU 0.010 0.020 C27 C44 C37 C41 C44B C37B C41B
SIMU 0.010 0.020 C28 C40 C42 C34 C39 C43 C28B C40B C42B C34B C39B C43B

WGHT 0.082660 10.758620
FVAR 0.18991 0.78356 0.83298 0.73009 0.71848
LA1   6   0.429122   0.291518   0.269801    11.00000     0.04315     0.03270 =
      0.04262     0.00565     0.00731     0.00966
NI1   5   0.466913   0.070242   0.207487    11.00000     0.04982     0.03171 =
      0.04631     0.00544     0.01014     0.01106
P1    4   0.260813   0.052413   0.145818    11.00000     0.05205     0.03304 =
      0.04697     0.00256     0.00467     0.00645
P2    4   0.511625   0.071650   0.314989    11.00000     0.06020     0.03557 =
      0.04904     0.00988     0.00956     0.01504
N1    3   0.251715   0.281049   0.169989    11.00000     0.05653     0.03250 =
      0.04705     0.00707     0.00298     0.01081
N2    3   0.383608   0.247134   0.375659    11.00000     0.06456     0.04101 =
      0.04737     0.00977     0.01582     0.01637
N3    3   0.627279   0.295890   0.216948    11.00000     0.04586     0.04374 =
      0.05536     0.01106     0.00933     0.00296
C1    1   0.295270   0.494004   0.270085    11.00000     0.05472     0.03481 =
      0.04870     0.00590     0.00346     0.01283
N4    1   0.116769   0.349147   0.082938    11.00000     0.07620     0.04658 =
      0.04093     0.00918     0.00365     0.01067
AFIX 43
HN4   2   0.103769   0.280082   0.048210    11.00000    -1.20000
AFIX 0
N5    1   0.245970   0.449712   0.315960    11.00000     0.05335     0.04230 =
      0.04624     0.00505     0.00459     0.01537
AFIX 43
HN5   2   0.156182   0.413299   0.304117    11.00000    -1.20000
AFIX 0
N6    1   0.328283   0.458351   0.380149    11.00000     0.05754     0.03533 =
      0.04238     0.00177     0.00672     0.01428
C2    1   0.194909   0.363058   0.150006    11.00000     0.05452     0.03821 =
      0.04510     0.01290     0.00591     0.00995
C3    1   0.570087  -0.144254   0.142325    11.00000     0.08406     0.03462 =
      0.05597     0.00667     0.02129     0.02607
N7    1   0.212154   0.472453   0.199015    11.00000     0.05137     0.03875 =
      0.04617     0.00938     0.00699     0.00582
C4    1   0.593776   0.187683   0.193015    11.00000     0.05125     0.04614 =
      0.05728     0.01238     0.01256     0.01270
C5    1   0.429252   0.550462   0.288854    11.00000     0.06327     0.03756 =
      0.06471     0.01401     0.00689     0.00458
AFIX 43
H5    2   0.463435   0.581496   0.258793    11.00000    -1.20000
AFIX 0
C6    1   0.273924   0.401652   0.425767    11.00000     0.06261     0.05047 =
      0.04111     0.00458     0.00648     0.01887
C7    1   0.219031   0.170866   0.115285    11.00000     0.07496     0.03801 =
      0.05023     0.00432    -0.00342     0.01362
C8    1   0.153937   0.558129   0.182924    11.00000     0.08100     0.04132 =
      0.06058     0.01411     0.00378     0.01588
AFIX 43
H8    2   0.165502   0.627850   0.216875    11.00000    -1.20000
AFIX 0
N8    3   0.529611  -0.061204   0.166060    11.00000     0.07296     0.05958 =
      0.06550     0.01646     0.01450     0.01218
C9    1   0.193617   0.450810   0.469634    11.00000     0.07241     0.07063 =
      0.05065     0.00625     0.01757     0.02963
AFIX 43
H9    2   0.171914   0.520245   0.470112    11.00000    -1.20000
AFIX 0
C10   1   0.460937   0.514896   0.396647    11.00000     0.06870     0.04506 =
      0.04912     0.00187    -0.00408     0.00898
AFIX 43
H10   2   0.516470   0.521854   0.438968    11.00000    -1.20000
AFIX 0
C11   1   0.736097   0.360746   0.198660    11.00000     0.06685     0.05953 =
      0.10197     0.01888     0.03475    -0.00408
C12   1   0.059692   0.435319   0.067966    11.00000     0.09989     0.06215 =
      0.05052     0.02334    -0.00594     0.01173
AFIX 43
H12   2   0.007130   0.421570   0.023835    11.00000    -1.20000
AFIX 0
C13   1   0.309386   0.294764   0.421938    11.00000     0.06324     0.04466 =
      0.04439     0.00735     0.01260     0.01148
C14   1   0.176335   0.296402   0.511355    11.00000     0.08317     0.08290 =
      0.05718     0.01358     0.02526     0.01353
AFIX 43
H14   2   0.143160   0.260352   0.539459    11.00000    -1.20000
AFIX 0
C15   1   0.689943   0.134932   0.365599    11.00000     0.06709     0.05724 =
      0.06262     0.02013    -0.00156     0.01162
PART 1
C16   1   0.104077   0.020282   0.177906    21.00000     0.05190     0.07037 =
      0.08086     0.01849     0.00997     0.00358
PART 0
C17   1   0.513283   0.560857   0.353047    11.00000     0.06444     0.04517 =
      0.06512     0.00720    -0.00224    -0.00470
AFIX 43
H17   2   0.602698   0.598286   0.365535    11.00000    -1.20000
AFIX 0
C18   1   0.716316   0.264338   0.386524    11.00000     0.07328     0.06534 =
      0.07340     0.01475     0.00460     0.00128
AFIX 137
H18A  2   0.652929   0.294310   0.413267    11.00000    -1.50000
H18B  2   0.807316   0.293416   0.413672    11.00000    -1.50000
H18C  2   0.705070   0.285598   0.345618    11.00000    -1.50000
AFIX 0
C19   1   0.415913   0.138882   0.381283    11.00000     0.08110     0.04704 =
      0.04959     0.01578     0.02104     0.02295
C20   1   0.077879   0.540449   0.115949    11.00000     0.11024     0.05363 =
      0.06160     0.02338    -0.00093     0.02802
AFIX 43
H20   2   0.041095   0.598029   0.104508    11.00000    -1.20000
AFIX 0
C21   1   0.257426   0.245649   0.468254    11.00000     0.08461     0.06154 =
      0.05274     0.01700     0.02348     0.01630
AFIX 43
H21   2   0.279150   0.176882   0.469343    11.00000    -1.20000
AFIX 0
PART 1
C22   1   0.216757  -0.059319   0.057568    21.00000     0.07215     0.04541 =
      0.05631    -0.00034     0.00282     0.00421
PART 0
C23   1   0.144523   0.399672   0.512900    11.00000     0.07815     0.09316 =
      0.06297     0.01633     0.03143     0.03441
AFIX 43
H23   2   0.091359   0.434340   0.542267    11.00000    -1.20000
AFIX 0
C24   1   0.497447  -0.073241   0.321719    11.00000     0.10473     0.04221 =
      0.07583     0.02264     0.01692     0.02098
PART 1
C25   1   0.328603  -0.043567   0.017223    21.00000     0.07823     0.05700 =
      0.05760     0.00197     0.00885     0.00773
PART 0
C26   1   0.359360  -0.142267   0.283451    11.00000     0.10473     0.05292 =
      0.10338     0.02587     0.01423    -0.00702
AFIX 137
H26A  2   0.336692  -0.134793   0.238405    11.00000    -1.50000
H26B  2   0.361013  -0.219638   0.278671    11.00000    -1.50000
H26C  2   0.292550  -0.116273   0.308940    11.00000    -1.50000
AFIX 0
C27   1   0.607258  -0.253337   0.114202    11.00000     0.10486     0.05039 =
      0.09274     0.00865     0.03271     0.03687
PART 1
C28   1   1.092047   0.715716   0.372803    51.00000     0.13810     0.08436 =
      0.10091     0.01327     0.00651     0.03193
PART 0
C29   1   0.792139   0.087518   0.322687    11.00000     0.06186     0.11176 =
      0.11288     0.02981     0.00694     0.03624
AFIX 137
H29A  2   0.776214   0.007190   0.309557    11.00000    -1.50000
H29B  2   0.780791   0.109013   0.281866    11.00000    -1.50000
H29C  2   0.883037   0.116831   0.349919    11.00000    -1.50000
AFIX 0
PART 1
C30   1   0.193832  -0.177585   0.065327    21.00000     0.08804     0.04657 =
      0.06921     0.00240     0.00776     0.00616
C31   1   0.858434   0.302967   0.191124    31.00000     0.06688     0.08615 =
      0.12411     0.03392     0.04266     0.00686
C32   1   0.101776   0.102779   0.244853    21.00000     0.05993     0.07855 =
      0.08013     0.01981     0.01571     0.00943
C33   1  -0.035551   0.004511   0.127253    21.00000     0.05735     0.08863 =
      0.09785     0.02531     0.01192     0.00753
C34   1   1.057994   0.938529   0.405128    51.00000     0.13695     0.08259 =
      0.10364     0.00991     0.00009     0.03158
PART 0
C35   1   0.540470  -0.081071   0.394113    11.00000     0.17469     0.07711 =
      0.10208     0.05426     0.00799     0.02495
AFIX 137
H35A  2   0.628539  -0.036016   0.416394    11.00000    -1.50000
H35B  2   0.475723  -0.054376   0.420856    11.00000    -1.50000
H35C  2   0.544187  -0.157741   0.390587    11.00000    -1.50000
AFIX 0
PART 1
C36   1   0.770123   0.478290   0.248803    31.00000     0.09242     0.07249 =
      0.12155     0.02326     0.04320    -0.00308
C37   1   0.648948  -0.255110   0.047325    41.00000     0.10593     0.07850 =
      0.09597     0.01421     0.03655     0.03274
C38   1   0.679232   0.370231   0.126248    31.00000     0.08813     0.08307 =
      0.10964     0.03292     0.03802     0.00100
AFIX 13
PART 0
H38   2   0.591213   0.320535   0.104754    10.83298    -1.20000
AFIX 0
PART 1
C39   1   1.147521   0.905040   0.450797    51.00000     0.14089     0.08843 =
      0.10287     0.01443     0.00348     0.03352
C40   1   1.005466   0.747523   0.325572    51.00000     0.13825     0.08669 =
      0.10636     0.01282     0.00543     0.03342
C41   1   0.480849  -0.348022   0.096359    41.00000     0.12270     0.05323 =
      0.11027     0.01324     0.03862     0.02727
C42   1   0.983922   0.857632   0.344292    51.00000     0.14007     0.08608 =
      0.10466     0.01130     0.00341     0.03368
C43   1   1.164663   0.793842   0.434535    51.00000     0.14205     0.09059 =
      0.10384     0.01768     0.00757     0.03466
C44   1   0.715020  -0.265216   0.171537    41.00000     0.11860     0.08010 =
      0.10300     0.02813     0.03352     0.04834
PART 2
C22B  1   0.248299  -0.043630   0.054057   -21.00000     0.07372     0.04565 =
      0.05618     0.00102     0.00568     0.00535
C25B  1   0.375816  -0.020182   0.026441   -21.00000     0.07512     0.05011 =
      0.05617     0.00033     0.00660     0.00455
C30B  1   0.213457  -0.167620   0.048094   -21.00000     0.07714     0.04647 =
      0.05804     0.00097     0.00618     0.00480
C16B  1   0.107049  -0.006518   0.169264   -21.00000     0.05585     0.07142 =
      0.08075     0.01869     0.01155     0.00645
C33B  1  -0.027582  -0.052478   0.114571   -21.00000     0.05745     0.07907 =
      0.09118     0.02318     0.01283     0.00728
C32B  1   0.096659   0.022602   0.244410   -21.00000     0.05969     0.08024 =
      0.08415     0.02291     0.01390     0.00803
C36B  1   0.839022   0.423401   0.267578   -31.00000     0.07591     0.07489 =
      0.11788     0.02714     0.03996    -0.00118
C38B  1   0.668644   0.453468   0.181844   -31.00000     0.08313     0.07246 =
      0.11226     0.02652     0.03948    -0.00139
AFIX 13
PART 0
H38B  2   0.575340   0.448774   0.188509    10.16702    -1.20000
AFIX 0
PART 2
C31B  1   0.804833   0.292263   0.145308   -31.00000     0.07532     0.07866 =
      0.11257     0.02980     0.04048     0.00207
C44B  1   0.753395  -0.254471   0.150510   -41.00000     0.10970     0.06956 =
      0.09775     0.02170     0.03358     0.04405
C37B  1   0.577382  -0.281220   0.035561   -41.00000     0.10870     0.07042 =
      0.09587     0.01314     0.03686     0.03553
C41B  1   0.507491  -0.330043   0.135619   -41.00000     0.11831     0.04974 =
      0.10206     0.01252     0.03636     0.03100
C28B  1   1.180369   0.743366   0.406258   -51.00000     0.14026     0.08478 =
      0.10045     0.01283     0.00585     0.03224
C43B  1   1.204638   0.855659   0.447505   -51.00000     0.14215     0.08658 =
      0.10157     0.01345     0.00617     0.03328
C39B  1   1.116766   0.928933   0.437813   -51.00000     0.14132     0.08745 =
      0.10489     0.01388     0.00473     0.03368
C34B  1   1.002643   0.885055   0.383768   -51.00000     0.14066     0.08826 =
      0.10564     0.01418     0.00458     0.03425
C42B  1   0.969865   0.770759   0.347226   -51.00000     0.13987     0.08815 =
      0.10427     0.01364     0.00566     0.03321
C40B  1   1.063245   0.700960   0.354415   -51.00000     0.13866     0.08604 =
      0.10205     0.01366     0.00549     0.03218
PART 0
HKLF 4
END
