TITL CrystalPilot n0177 in P -1
REM CrystalPilot node n0177 tool=edit_atoms
REM R1 = 0.0648 wR2 = 0.1993 GooF = 0.951
CELL 0.71073 10.15540 12.70750 20.80080 107.6910 100.3150 96.2330
ZERR 2 0.00170 0.00210 0.00440 0.0030 0.0030 0.0020
LATT 1
SFAC C H N P Ni La
UNIT 96.0 138.0 8.0 4.0 2.0 2.0

DFIX 1.3900 0.010 C28 C40
DFIX 1.3900 0.010 C40 C42
DFIX 1.3900 0.010 C42 C34
DFIX 1.3900 0.010 C34 C39
DFIX 1.3900 0.010 C39 C43
DFIX 1.3900 0.010 C43 C28
DFIX 1.3900 0.010 C28B C40B
DFIX 1.3900 0.010 C40B C42B
DFIX 1.3900 0.010 C42B C34B
DFIX 1.3900 0.010 C34B C39B
DFIX 1.3900 0.010 C39B C43B
DFIX 1.3900 0.010 C43B C28B
FLAT 0.01 C28 C40 C42 C34 C39 C43
FLAT 0.01 C28B C40B C42B C34B C39B C43B
SADI 0.020 P1 C22 P1 C16 P1 C22B P1 C16B
SADI 0.020 C22 C25 C22 C30 C16 C33 C16 C32 C22B C25B C22B C30B C16B C33B =
 C16B C32B
SIMU 0.010 0.020 P1 C22 C25 C30 C16 C33 C32 C22B C25B C30B C16B C33B C32B
SADI 0.020 C11 C36 C11 C38 C11 C31 C11 C36B C11 C38B C11 C31B
SIMU 0.010 0.020 C11 C36 C38 C31 C36B C38B C31B
SADI 0.020 C27 C44 C27 C37 C27 C41 C27 C44B C27 C37B C27 C41B
SIMU 0.010 0.020 C27 C44 C37 C41 C44B C37B C41B
SIMU 0.010 0.020 C28 C40 C42 C34 C39 C43 C28B C40B C42B C34B C39B C43B
DFIX 0.9800 0.020 C4 H0

WGHT 0.069430 14.286557
FVAR 0.18978 0.86657 0.77891 0.81331 0.71396
LA1   6   0.429132   0.291508   0.269794    11.00000     0.04354     0.03311 =
      0.04309     0.00579     0.00734     0.00978
NI1   5   0.466921   0.070242   0.207488    11.00000     0.04994     0.03180 =
      0.04648     0.00556     0.01019     0.01116
P1    4   0.260814   0.052358   0.145802    11.00000     0.05174     0.03296 =
      0.04701     0.00318     0.00492     0.00680
P2    4   0.511711   0.071653   0.315003    11.00000     0.06014     0.03565 =
      0.04892     0.00991     0.00961     0.01503
N1    3   0.251788   0.281023   0.169954    11.00000     0.05645     0.03241 =
      0.04725     0.00697     0.00331     0.01066
N2    3   0.383465   0.247112   0.375669    11.00000     0.06377     0.04138 =
      0.04773     0.01049     0.01622     0.01630
N3    3   0.627230   0.295547   0.216781    11.00000     0.04629     0.04393 =
      0.05374     0.01082     0.00941     0.00307
C1    1   0.295001   0.493769   0.270055    11.00000     0.05502     0.03431 =
      0.04888     0.00589     0.00374     0.01296
C45   1   0.116915   0.348900   0.082894    11.00000     0.07511     0.04725 =
      0.04095     0.00910     0.00328     0.01120
AFIX 43
H45   2   0.103609   0.279663   0.048291    11.00000    -1.20000
AFIX 0
C46   1   0.245529   0.449743   0.316182    11.00000     0.05307     0.04120 =
      0.04655     0.00526     0.00525     0.01521
AFIX 43
H46   2   0.155639   0.413595   0.304441    11.00000    -1.20000
AFIX 0
C47   1   0.327843   0.458345   0.380323    11.00000     0.05798     0.03555 =
      0.04146     0.00168     0.00769     0.01494
C2    1   0.195005   0.363005   0.149841    11.00000     0.05424     0.03785 =
      0.04556     0.01316     0.00508     0.00925
C3    1   0.570015  -0.144139   0.142750    11.00000     0.08295     0.03352 =
      0.05491     0.00545     0.02039     0.02631
C48   1   0.211778   0.472317   0.199092    11.00000     0.05150     0.03823 =
      0.04603     0.00904     0.00692     0.00594
C4    1   0.593679   0.188124   0.193176    11.00000     0.05174     0.04711 =
      0.05636     0.01262     0.01383     0.01367
C5    1   0.429198   0.550613   0.289255    11.00000     0.06319     0.03844 =
      0.06440     0.01430     0.00745     0.00426
AFIX 43
H5    2   0.463367   0.581761   0.259238    11.00000    -1.20000
AFIX 0
C6    1   0.274439   0.402034   0.425829    11.00000     0.06233     0.04940 =
      0.04215     0.00451     0.00603     0.01835
C7    1   0.219112   0.170788   0.115596    11.00000     0.07339     0.04033 =
      0.04921     0.00518    -0.00238     0.01402
AFIX 23
H7A   2   0.122730   0.155852   0.094612    11.00000    -1.20000
H7B   2   0.268016   0.173583   0.079974    11.00000    -1.20000
AFIX 0
C8    1   0.153901   0.557842   0.182606    11.00000     0.08116     0.04197 =
      0.06113     0.01533     0.00489     0.01647
AFIX 43
H8    2   0.166103   0.627855   0.216347    11.00000    -1.20000
AFIX 0
N4    3   0.529769  -0.061525   0.166132    11.00000     0.07298     0.06068 =
      0.06592     0.01782     0.01389     0.01301
C9    1   0.193699   0.450778   0.469678    11.00000     0.07165     0.06964 =
      0.05064     0.00477     0.01669     0.02879
AFIX 43
H9    2   0.171586   0.520048   0.470033    11.00000    -1.20000
AFIX 0
C10   1   0.459803   0.515203   0.396907    11.00000     0.06842     0.04604 =
      0.04810     0.00098    -0.00443     0.00941
AFIX 43
H10   2   0.515006   0.522638   0.439404    11.00000    -1.20000
AFIX 0
C11   1   0.735829   0.360482   0.198444    11.00000     0.06284     0.05133 =
      0.09318     0.02100     0.03397     0.00260
C12   1   0.060089   0.435162   0.067678    11.00000     0.10180     0.06194 =
      0.05190     0.02457    -0.00708     0.01144
AFIX 43
H12   2   0.008459   0.421728   0.023384    11.00000    -1.20000
AFIX 0
C13   1   0.309895   0.295040   0.422079    11.00000     0.06232     0.04522 =
      0.04402     0.00712     0.01200     0.01169
C14   1   0.176375   0.296570   0.511404    11.00000     0.08242     0.08413 =
      0.05667     0.01303     0.02446     0.01141
AFIX 43
H14   2   0.142583   0.260431   0.539315    11.00000    -1.20000
AFIX 0
C15   1   0.690128   0.135315   0.364918    11.00000     0.06771     0.05861 =
      0.06065     0.02236    -0.00286     0.01065
AFIX 13
H15   2   0.703147   0.115813   0.407459    11.00000    -1.20000
AFIX 0
PART 1
C16   1   0.106800   0.017048   0.177970    21.00000     0.04951     0.07122 =
      0.07069     0.02077     0.00269    -0.00219
AFIX 13
H16   2   0.120071  -0.055723   0.182687    21.00000    -1.20000
AFIX 0
PART 0
C17   1   0.513011   0.561369   0.353051    11.00000     0.06549     0.04412 =
      0.06523     0.00802    -0.00327    -0.00441
AFIX 43
H17   2   0.602434   0.598774   0.365516    11.00000    -1.20000
AFIX 0
C18   1   0.715513   0.264217   0.386642    11.00000     0.07627     0.06831 =
      0.07280     0.01654     0.00249     0.00002
AFIX 137
H18A  2   0.807784   0.293183   0.411973    11.00000    -1.50000
H18B  2   0.654853   0.293453   0.415386    11.00000    -1.50000
H18C  2   0.699730   0.286388   0.346112    11.00000    -1.50000
AFIX 0
C19   1   0.416220   0.139235   0.380809    11.00000     0.07748     0.04725 =
      0.04795     0.01527     0.01832     0.01910
AFIX 23
H19A  2   0.470084   0.151597   0.426777    11.00000    -1.20000
H19B  2   0.332616   0.088823   0.374672    11.00000    -1.20000
AFIX 0
C20   1   0.077664   0.539998   0.116031    11.00000     0.10969     0.05378 =
      0.06183     0.02362     0.00017     0.02887
AFIX 43
H20   2   0.039974   0.597392   0.104816    11.00000    -1.20000
AFIX 0
C21   1   0.258298   0.245709   0.468484    11.00000     0.08226     0.06022 =
      0.05275     0.01657     0.02275     0.01456
AFIX 43
H21   2   0.280592   0.177212   0.469818    11.00000    -1.20000
AFIX 0
PART 1
C22   1   0.218262  -0.057612   0.057752    21.00000     0.06813     0.04594 =
      0.05617    -0.00328    -0.00487     0.00811
AFIX 13
H22   2   0.132940  -0.049194   0.030731    21.00000    -1.20000
AFIX 0
PART 0
C23   1   0.144889   0.400029   0.512904    11.00000     0.07740     0.09281 =
      0.06035     0.01476     0.02917     0.03455
AFIX 43
H23   2   0.091978   0.434920   0.542345    11.00000    -1.20000
AFIX 0
C24   1   0.496334  -0.073158   0.322272    11.00000     0.10234     0.04247 =
      0.07762     0.02247     0.02134     0.02335
AFIX 13
H24   2   0.566013  -0.105494   0.299420    11.00000    -1.20000
AFIX 0
PART 1
C25   1   0.331351  -0.041509   0.018045    21.00000     0.08664     0.06493 =
      0.05618    -0.00135     0.00695     0.01851
AFIX 137
H25A  2   0.309179  -0.097901  -0.026934    21.00000    -1.50000
H25B  2   0.416918  -0.048165   0.043535    21.00000    -1.50000
H25C  2   0.337537   0.031447   0.013103    21.00000    -1.50000
AFIX 0
PART 0
C26   1   0.359842  -0.142286   0.284052    11.00000     0.10576     0.05228 =
      0.10361     0.02488     0.01822    -0.00536
AFIX 137
H26A  2   0.355173  -0.215391   0.288720    11.00000    -1.50000
H26B  2   0.346523  -0.149366   0.235952    11.00000    -1.50000
H26C  2   0.290311  -0.106426   0.302977    11.00000    -1.50000
AFIX 0
C27   1   0.606813  -0.253621   0.114278    11.00000     0.10611     0.04672 =
      0.09038     0.01481     0.03634     0.04315
PART 1
C28   1   1.095695   0.715384   0.372748    51.00000     0.12990     0.08609 =
      0.10306     0.02218     0.01122     0.03483
AFIX 43
H28   2   1.109715   0.641495   0.362121    51.00000    -1.20000
AFIX 0
PART 0
C29   1   0.791927   0.087203   0.322790    11.00000     0.06192     0.10444 =
      0.10895     0.02893     0.01021     0.03380
AFIX 137
H29A  2   0.882774   0.120488   0.348933    11.00000    -1.50000
H29B  2   0.776979   0.103526   0.280191    11.00000    -1.50000
H29C  2   0.779825   0.007443   0.312844    11.00000    -1.50000
AFIX 0
PART 1
C30   1   0.194251  -0.176571   0.063596    21.00000     0.09821     0.04780 =
      0.08490    -0.00625    -0.00385     0.00510
AFIX 137
H30A  2   0.172656  -0.231591   0.018140    21.00000    -1.50000
H30B  2   0.120206  -0.183323   0.085840    21.00000    -1.50000
H30C  2   0.275017  -0.188490   0.090428    21.00000    -1.50000
AFIX 0
C31   1   0.862641   0.307541   0.195941    31.00000     0.06060     0.09920 =
      0.13940     0.02822     0.04212     0.00714
AFIX 137
H31A  2   0.929305   0.353124   0.183844    31.00000    -1.50000
H31B  2   0.840020   0.233942   0.161891    31.00000    -1.50000
H31C  2   0.898790   0.302079   0.240504    31.00000    -1.50000
AFIX 0
C32   1   0.101130   0.101530   0.244941    21.00000     0.06161     0.09476 =
      0.07575     0.01342     0.01441     0.00860
AFIX 137
H32A  2   0.020465   0.079417   0.259014    21.00000    -1.50000
H32B  2   0.099596   0.173549   0.239158    21.00000    -1.50000
H32C  2   0.179684   0.105938   0.279708    21.00000    -1.50000
AFIX 0
C33   1  -0.034042   0.000452   0.128304    21.00000     0.05403     0.11317 =
      0.09921     0.00633     0.00510    -0.00301
AFIX 137
H33A  2  -0.105030  -0.017222   0.150178    21.00000    -1.50000
H33B  2  -0.039876  -0.059855   0.086195    21.00000    -1.50000
H33C  2  -0.043948   0.068213   0.117955    21.00000    -1.50000
AFIX 0
C34   1   1.054490   0.936583   0.404677    51.00000     0.13245     0.08617 =
      0.10627     0.01086    -0.00881     0.03832
AFIX 43
H34   2   1.040516   1.010474   0.415173    51.00000    -1.20000
AFIX 0
PART 0
C35   1   0.538963  -0.081132   0.393779    11.00000     0.18069     0.07379 =
      0.09884     0.05091     0.00938     0.02607
AFIX 137
H35A  2   0.526639  -0.158518   0.390947    11.00000    -1.50000
H35B  2   0.484412  -0.042144   0.423113    11.00000    -1.50000
H35C  2   0.632937  -0.047803   0.412734    11.00000    -1.50000
AFIX 0
PART 1
C36   1   0.766786   0.480302   0.247633    31.00000     0.11338     0.06479 =
      0.12379     0.01151     0.03859    -0.02050
AFIX 137
H36A  2   0.837272   0.522627   0.235828    31.00000    -1.50000
H36B  2   0.796327   0.480748   0.294229    31.00000    -1.50000
H36C  2   0.686363   0.513408   0.243992    31.00000    -1.50000
AFIX 0
C37   1   0.646902  -0.258357   0.047937    41.00000     0.11288     0.08709 =
      0.09878     0.00646     0.03518     0.02303
AFIX 137
H37A  2   0.671785  -0.329918   0.027921    41.00000    -1.50000
H37B  2   0.722877  -0.199935   0.056845    41.00000    -1.50000
H37C  2   0.571818  -0.248263   0.016394    41.00000    -1.50000
AFIX 0
C38   1   0.677966   0.368556   0.126318    31.00000     0.10021     0.08662 =
      0.09634     0.04049     0.02657    -0.00699
AFIX 137
H38A  2   0.746495   0.410425   0.113033    31.00000    -1.50000
H38B  2   0.600663   0.405747   0.128265    31.00000    -1.50000
H38C  2   0.650866   0.294502   0.092939    31.00000    -1.50000
AFIX 0
C39   1   1.142985   0.905767   0.451681    51.00000     0.13527     0.09244 =
      0.10189     0.01625    -0.00523     0.03641
AFIX 43
H39   2   1.189177   0.958189   0.493933    51.00000    -1.20000
AFIX 0
C40   1   1.008591   0.749004   0.327363    51.00000     0.12955     0.09080 =
      0.11071     0.01116     0.00320     0.03897
AFIX 43
H40   2   0.962619   0.696473   0.285107    51.00000    -1.20000
AFIX 0
C41   1   0.483317  -0.345586   0.099622    41.00000     0.13846     0.04798 =
      0.13801     0.01645     0.04088     0.01981
AFIX 137
H41A  2   0.507543  -0.417836   0.080836    41.00000    -1.50000
H41B  2   0.410154  -0.335654   0.066946    41.00000    -1.50000
H41C  2   0.455078  -0.340739   0.141925    41.00000    -1.50000
AFIX 0
C42   1   0.987290   0.858198   0.342561    51.00000     0.13561     0.09132 =
      0.10712     0.00906    -0.00391     0.03817
AFIX 43
H42   2   0.927649   0.878717   0.310879    51.00000    -1.20000
AFIX 0
C43   1   1.161118   0.795617   0.434459    51.00000     0.13445     0.09236 =
      0.10354     0.02373     0.00561     0.03531
AFIX 43
H43   2   1.220377   0.774703   0.466090    51.00000    -1.20000
AFIX 0
C44   1   0.716457  -0.265712   0.168971    41.00000     0.14037     0.08481 =
      0.11144     0.02772     0.01487     0.05558
AFIX 137
H44A  2   0.743931  -0.337194   0.152270    41.00000    -1.50000
H44B  2   0.682620  -0.260714   0.209847    41.00000    -1.50000
H44C  2   0.793032  -0.206970   0.179819    41.00000    -1.50000
AFIX 0
PART 2
C22B  1   0.261254  -0.043752   0.057228   -21.00000     0.06736     0.04405 =
      0.05372    -0.00018     0.00202     0.00667
AFIX 13
H22B  2   0.193978  -0.026049   0.023755   -21.00000    -1.20000
AFIX 0
C25B  1   0.390202  -0.022724   0.029846   -21.00000     0.07436     0.05252 =
      0.05068    -0.00464     0.00204     0.00653
AFIX 137
H1    2   0.380319  -0.075940  -0.015528   -21.00000    -1.50000
H2    2   0.467975  -0.031112   0.060529   -21.00000    -1.50000
H3    2   0.402314   0.051926   0.027549   -21.00000    -1.50000
AFIX 0
C30B  1   0.217148  -0.166137   0.053605   -21.00000     0.07201     0.04772 =
      0.05988    -0.00540     0.00642     0.00535
AFIX 137
H4    2   0.216992  -0.216128   0.008475   -21.00000    -1.50000
H6    2   0.127466  -0.175053   0.062142   -21.00000    -1.50000
H7    2   0.279600  -0.183222   0.087948   -21.00000    -1.50000
AFIX 0
C16B  1   0.087269   0.006079   0.156984   -21.00000     0.05284     0.06692 =
      0.06782     0.01257     0.00404     0.00215
AFIX 13
H16B  2   0.046400   0.070238   0.151721   -21.00000    -1.20000
AFIX 0
C33B  1  -0.033714  -0.068501   0.098862   -21.00000     0.06007     0.09196 =
      0.08592     0.01400     0.00842     0.00217
AFIX 137
H11   2  -0.110900  -0.079836   0.118242   -21.00000    -1.50000
H13   2  -0.009405  -0.139655   0.077268   -21.00000    -1.50000
H18   2  -0.055993  -0.032342   0.064971   -21.00000    -1.50000
AFIX 0
C32B  1   0.097997  -0.009126   0.228362   -21.00000     0.05025     0.08467 =
      0.07473     0.01427     0.01047     0.00392
AFIX 137
H19   2   0.008833  -0.032826   0.233800   -21.00000    -1.50000
H25   2   0.138676   0.060807   0.264087   -21.00000    -1.50000
H26   2   0.153166  -0.064831   0.231666   -21.00000    -1.50000
AFIX 0
C36B  1   0.820776   0.439597   0.269137   -31.00000     0.08885     0.06699 =
      0.12172     0.01250     0.03526    -0.01808
AFIX 137
H27   2   0.894681   0.485622   0.262166   -31.00000    -1.50000
H29   2   0.856166   0.395977   0.296481   -31.00000    -1.50000
H30   2   0.764384   0.486464   0.292790   -31.00000    -1.50000
AFIX 0
C38B  1   0.672255   0.459139   0.187498   -31.00000     0.09641     0.07841 =
      0.11430     0.02885     0.03138    -0.00530
AFIX 137
H31   2   0.736148   0.506815   0.175207   -31.00000    -1.50000
H32   2   0.648881   0.501149   0.229456   -31.00000    -1.50000
H33   2   0.591814   0.431407   0.150957   -31.00000    -1.50000
AFIX 0
C31B  1   0.832441   0.288198   0.165800   -31.00000     0.04585     0.07233 =
      0.10275     0.00828     0.04554     0.00923
AFIX 137
H35   2   0.900766   0.334068   0.154893   -31.00000    -1.50000
H36   2   0.782374   0.230440   0.124191   -31.00000    -1.50000
H37   2   0.875041   0.254553   0.197753   -31.00000    -1.50000
AFIX 0
C44B  1   0.753499  -0.254904   0.143866   -41.00000     0.12090     0.07118 =
      0.10183     0.02235     0.02871     0.05141
AFIX 137
H38   2   0.774141  -0.328191   0.123991   -41.00000    -1.50000
H41   2   0.768123  -0.236661   0.193184   -41.00000    -1.50000
H44   2   0.811468  -0.200675   0.133230   -41.00000    -1.50000
AFIX 0
C37B  1   0.577165  -0.289270   0.036495   -41.00000     0.11027     0.06789 =
      0.09289     0.00183     0.04039     0.03359
AFIX 137
H47   2   0.601862  -0.361528   0.018378   -41.00000    -1.50000
H48   2   0.628757  -0.235523   0.022576   -41.00000    -1.50000
H49   2   0.481961  -0.293503   0.018905   -41.00000    -1.50000
AFIX 0
C41B  1   0.525964  -0.326046   0.144116   -41.00000     0.13611     0.05219 =
      0.11371     0.02755     0.02910     0.03724
AFIX 137
H50   2   0.543343  -0.401354   0.128202   -41.00000    -1.50000
H51   2   0.430832  -0.325954   0.129403   -41.00000    -1.50000
H52   2   0.552224  -0.296958   0.193747   -41.00000    -1.50000
AFIX 0
C28B  1   1.179832   0.746905   0.407161   -51.00000     0.13254     0.08627 =
      0.10051     0.02064     0.00852     0.03310
AFIX 43
H28B  2   1.239919   0.699012   0.413972   -51.00000    -1.20000
AFIX 0
C43B  1   1.207029   0.861109   0.444738   -51.00000     0.13551     0.09013 =
      0.10160     0.01723     0.00506     0.03320
AFIX 43
H43B  2   1.286798   0.893836   0.478327   -51.00000    -1.20000
AFIX 0
C39B  1   1.109385   0.923775   0.429667   -51.00000     0.13566     0.09080 =
      0.10589     0.01518    -0.00089     0.03557
AFIX 43
H39B  2   1.124528   1.000333   0.453766   -51.00000    -1.20000
AFIX 0
C34B  1   0.989955   0.875749   0.379786   -51.00000     0.13499     0.09148 =
      0.10667     0.01387    -0.00128     0.03743
AFIX 43
H34B  2   0.929164   0.922889   0.372501   -51.00000    -1.20000
AFIX 0
C42B  1   0.953752   0.763461   0.339948   -51.00000     0.13411     0.09246 =
      0.10778     0.01320     0.00405     0.03594
AFIX 43
H42B  2   0.874059   0.730245   0.306387   -51.00000    -1.20000
AFIX 0
C40B  1   1.057631   0.709715   0.359142   -51.00000     0.13095     0.08713 =
      0.10287     0.02015     0.00630     0.03563
AFIX 43
H40B  2   1.042037   0.633215   0.334836   -51.00000    -1.20000
AFIX 0
PART 0
H0    2   0.651697   0.160008   0.161086    11.00000     0.05872
HKLF 4
END
