TITL CrystalPilot n0005 in I 41/a m d :2
REM CrystalPilot node n0005 tool=refine
REM R1 = 0.163 wR2 = 0.4597 GooF = 3.571
CELL 1.54178 15.85170 15.85170 57.50380 90.0000 90.0000 90.0000
ZERR 4 0.00010 0.00010 0.00130 0.0000 0.0000 0.0000
LATT 2
SYMM -Y+1/4,X+3/4,Z+1/4
SYMM Y+1/4,-X+1/4,Z+3/4
SYMM X,-Y,-Z
SYMM -X,Y+1/2,-Z
SYMM -X,-Y+1/2,Z
SYMM Y+1/4,X+3/4,-Z+1/4
SYMM -Y+1/4,-X+1/4,-Z+3/4
SFAC C O Zr
UNIT 208.0 128.0 24.0

WGHT 0.100000 0.000000
FVAR 0.11942
FE01  3   0.000000   0.250000   0.331561    10.25000     0.05182     0.02888 =
      0.03360     0.00000    -0.00000    -0.00000
ZR02  3   0.110262   0.360262   0.375000    10.50000     0.05941     0.05941 =
      0.04047    -0.00304     0.00304    -0.02810
O004  2   0.128698   0.250000   0.350528    10.50000     0.04814
O005  2   0.088733   0.334949   0.437219    11.00000     0.07623
O006  2   0.159975   0.405094   0.408244    11.00000     0.08799
O007  2   0.075681   0.500569   0.374106    11.00000     0.09994
C008  1   0.216499   0.387118   0.468867    11.00000     0.06764
C009  1   0.215331   0.415244   0.445197    11.00000     0.07063
C00A  1   0.149496   0.383892   0.428964    11.00000     0.06755
C00B  1   0.500000   0.471115   0.477539    10.50000     0.08614
C00D  1   0.344331   0.467338   0.474143    11.00000     0.07528
C00E  1   0.424344   0.489196   0.488270    11.00000     0.06520
C00F  1   0.275020   0.476005   0.437435    11.00000     0.08386
O5X   2   0.000000   0.156034   0.356523    10.50000     0.05994
HKLF 4
END
