TITL CrystalPilot n0002 in I 41/a m d :2
REM CrystalPilot node n0002 tool=refine
REM R1 = 0.2457 wR2 = 0.622 GooF = 5.28
CELL 1.54178 15.85170 15.85170 57.50380 90.0000 90.0000 90.0000
ZERR 4 0.00010 0.00010 0.00130 0.0000 0.0000 0.0000
LATT 2
SYMM -Y+1/4,X+3/4,Z+1/4
SYMM Y+1/4,-X+1/4,Z+3/4
SYMM X,-Y,-Z
SYMM -X,Y+1/2,-Z
SYMM -X,-Y+1/2,Z
SYMM Y+1/4,X+3/4,-Z+1/4
SYMM -Y+1/4,-X+1/4,-Z+3/4
SFAC C O Zr
UNIT 208.0 112.0 24.0

WGHT 0.100000 0.000000
FVAR 0.11338
FE01  3   0.000000   0.250000   0.331579    10.25000     0.03742
ZR02  3   0.110297   0.360297   0.375000    10.50000     0.04982
O004  2   0.129166   0.250000   0.350297    10.50000     0.04673
O005  2   0.089116   0.335419   0.437272    11.00000     0.07831
O006  2   0.158611   0.404862   0.408396    11.00000     0.08800
O007  2   0.076744   0.501193   0.374008    11.00000     0.09904
C008  1   0.215407   0.387303   0.468714    11.00000     0.06686
C009  1   0.215295   0.415695   0.445138    11.00000     0.07027
C00A  1   0.150310   0.384452   0.428200    11.00000     0.06778
C00B  1   0.500000   0.470021   0.476973    10.50000     0.08614
C00D  1   0.344675   0.467023   0.474071    11.00000     0.07513
C00E  1   0.425175   0.489490   0.488307    11.00000     0.06475
C00F  1   0.276172   0.476033   0.437332    11.00000     0.08405
HKLF 4
END
