TITL CrystalPilot n0023 in P 21 21 21
REM CrystalPilot node n0023 tool=set_restraints
CELL 0.68890 5.42807 8.12883 12.05269 90.0000 90.0000 90.0000
ZERR 4 0.00000 0.00000 0.00000 0.0000 0.0000 0.0000
LATT -1
SYMM X+1/2,-Y+1/2,-Z
SYMM -X,Y+1/2,-Z+1/2
SYMM -X+1/2,-Y,Z+1/2
SFAC C H N O S
UNIT 12.0 28.0 4.0 8.0 4.0

DFIX 0.8900 0.020 C4 H1X
DFIX 0.8900 0.020 C4 H2X
DFIX 0.8900 0.020 C4 H7X
DFIX 0.9700 0.020 C6 H3X
DFIX 0.9700 0.020 C6 H4X
DFIX 0.9800 0.020 C5 H5X
DFIX 1.2000 0.030 C1 H6X

WGHT 0.068900 0.111710
FVAR 1.16328
C1    5   0.118823   0.413499   0.524108    11.00000     0.02994     0.01860 =
      0.01660     0.00345     0.00003    -0.00386
C2    4   0.207511   0.216557   0.118817    11.00000     0.01058     0.02142 =
      0.02065     0.00582    -0.00006    -0.00237
C3    4   0.230991   0.009017   0.240028    11.00000     0.01705     0.02625 =
      0.02875     0.01295    -0.00320     0.00115
C4    3   0.215300   0.266566   0.874471    11.00000     0.00892     0.01706 =
      0.01692    -0.00127    -0.00087     0.00081
C5    1   0.166498   0.586900   0.323492    11.00000     0.01112     0.01695 =
      0.01316     0.00032     0.00112     0.00285
C6    1   0.242694   0.429897   0.384186    11.00000     0.01729     0.01665 =
      0.02003     0.00182    -0.00035     0.00385
C7    1   0.114924   0.105428   0.179091    11.00000     0.01121     0.01665 =
      0.01493     0.00146    -0.00065    -0.00055
H1X   2   0.254400   0.256645   0.945869    11.00000     0.02145
H2X   2   0.053562   0.283690   0.870777    11.00000     0.02145
H3X   2   0.417452   0.422224   0.400178    11.00000     0.02148
H4X   2   0.204469   0.335956   0.337647    11.00000     0.02148
H5X   2   0.222785   0.577929   0.246470    11.00000     0.01644
H6X   2   0.226190   0.514338   0.578417    11.00000     0.03255
H7X   2   0.262393   0.177551   0.837076    11.00000     0.02145
HKLF 4
END
