TITL CrystalPilot n0043 in C 2 2 21
REM CrystalPilot node n0043 tool=solvent_mask
REM R1 = 0.0535 wR2 = 0.1607 GooF = 0.995
CELL 0.68914 15.79000 32.31000 11.86000 90.0000 90.0000 90.0000
ZERR 8 0 0 0 0 0 0
LATT -7
SYMM X,-Y,-Z
SYMM -X,Y,-Z+1/2
SYMM -X,-Y,Z+1/2
SFAC C H O Cu
UNIT 218.8 100.0 32.0 8.0

WGHT 0.123330 3.600130
FVAR 0.27822
CU1   4   0.068948   0.019833   0.363624    11.00000     0.03955     0.02021 =
      0.08264     0.00101    -0.01846    -0.00173
C1    1   0.071326   0.294553   0.210474    11.00000     0.03147     0.01802 =
      0.04931    -0.00475     0.01103    -0.00126
C2    1   0.000000   0.272402   0.250000    10.50000     0.03452     0.01372 =
      0.04884     0.00000     0.00596     0.00000
C3    1   0.000000   0.405849   0.250000    10.50000     0.08421     0.00991 =
      0.04512     0.00000     0.00697     0.00000
O1    3   0.158875   0.046614   0.449218    11.00000     0.05024     0.04851 =
      0.07751     0.00407    -0.02732    -0.02259
C4    1   0.000000   0.360057   0.250000    10.50000     0.04599     0.01561 =
      0.04710     0.00000     0.01126     0.00000
C5    1   0.071498   0.337791   0.211689    11.00000     0.03718     0.02210 =
      0.04601    -0.00310     0.00656    -0.00472
O2    3   0.031818   0.076197   0.335260    11.00000     0.08718     0.02043 =
      0.09108     0.00264    -0.03143     0.00354
C6    1   0.000000   0.140483   0.250000    10.50000     0.05971     0.01490 =
      0.05858     0.00000    -0.01435     0.00000
O3    3   0.000000  -0.002163   0.250000    10.50000     0.10727     0.02367 =
      0.15677     0.00000    -0.08376     0.00000
C7    1   0.217514   0.218235   0.062952    11.00000     0.12405     0.11326 =
      0.04093     0.00193     0.01420     0.08327
AFIX 43
H7    2   0.216523   0.199990   0.002316    11.00000    -1.20000
AFIX 0
O4    3   0.122987   0.033845   0.628406    11.00000     0.05476     0.03455 =
      0.09054    -0.01267     0.03115    -0.02274
C8    1   0.148081   0.271244   0.175498    11.00000     0.04188     0.02899 =
      0.04627    -0.00638     0.01371     0.00220
C9    1   0.000000   0.226574   0.250000    10.50000     0.03877     0.01812 =
      0.05085     0.00000     0.00153     0.00000
C10   1   0.229248   0.083067   0.592303    11.00000     0.03866     0.03246 =
      0.05683     0.00064     0.00050    -0.01050
C11   1   0.144933   0.362619   0.168585    11.00000     0.04357     0.03612 =
      0.04897    -0.00285     0.00290    -0.01939
C12   1   0.168576   0.362270   0.054670    11.00000     0.04117     0.04148 =
      0.04750     0.00094     0.00490    -0.01630
AFIX 43
H12   2   0.143461   0.343789   0.004711    11.00000    -1.20000
AFIX 0
C13   1   0.121014   0.332824   0.724522    11.00000     0.13479     0.15705 =
      0.05628    -0.01180    -0.00895     0.10109
C14   1   0.146108   0.243195   0.085661    11.00000     0.09183     0.04666 =
      0.04126    -0.00354     0.01372     0.02706
AFIX 43
H14   2   0.097897   0.240994   0.041017    11.00000    -1.20000
AFIX 0
C15   1   0.207121   0.250197   0.718634    11.00000     0.05143     0.11534 =
      0.06582    -0.00934    -0.00837     0.03811
AFIX 43
H15   2   0.158814   0.247689   0.762972    11.00000    -1.20000
AFIX 0
C16   1   0.229771   0.389764   0.017354    11.00000     0.04467     0.03421 =
      0.05845    -0.00266     0.01369    -0.01115
AFIX 43
H16   2   0.244044   0.390274  -0.058711    11.00000    -1.20000
AFIX 0
C17   1   0.054330   0.161801   0.321601    11.00000     0.05907     0.02520 =
      0.06927    -0.00122    -0.02252     0.00222
AFIX 43
H17   2   0.089750   0.147443   0.370540    11.00000    -1.20000
AFIX 0
C18   1   0.055162   0.204639   0.319299    11.00000     0.04502     0.02074 =
      0.06154    -0.00048    -0.01536     0.00211
AFIX 43
H18   2   0.093156   0.218971   0.364747    11.00000    -1.20000
AFIX 0
C19   1   0.222457   0.274442   0.237101    11.00000     0.03609     0.06662 =
      0.07915    -0.00752     0.00604     0.01382
AFIX 43
H19   2   0.225192   0.294224   0.293946    11.00000    -1.20000
AFIX 0
C20   1   0.002600   0.427413   0.150241    11.00000     0.17173     0.02016 =
      0.04216     0.00235     0.01488     0.00289
AFIX 43
H20   2   0.000982   0.413190   0.082101    11.00000    -1.20000
AFIX 0
O5    3   0.030354   0.000000   0.000000    10.50000     0.03973     0.12158 =
      0.14247    -0.02930     0.00000     0.00000
C21   1   0.211460   0.279306   0.629820    11.00000     0.10386     0.14182 =
      0.04972    -0.01041    -0.02218     0.09133
C22   1   0.188161   0.388223   0.244670    11.00000     0.07803     0.05116 =
      0.04638    -0.00357    -0.00424    -0.03219
AFIX 43
H22   2   0.175769   0.386666   0.321213    11.00000    -1.20000
AFIX 0
C23   1   0.000000   0.492477   0.250000    10.50000     0.56464     0.01998 =
      0.04838     0.00000     0.06678     0.00000
AFIX 43
H23   2   0.000000   0.521260   0.250000    10.50000    -1.20000
AFIX 0
C24   1   0.000000   0.092466   0.250000    10.50000     0.06139     0.02126 =
      0.07256     0.00000    -0.02246     0.00000
C25   1   0.251158   0.084307   0.707386    11.00000     0.06372     0.04521 =
      0.05380     0.00017     0.00300    -0.02992
AFIX 43
H25   2   0.224705   0.066604   0.758205    11.00000    -1.20000
AFIX 0
C26   1   0.007595   0.470027   0.150528    11.00000     0.40588     0.02264 =
      0.04549     0.00335     0.04066     0.00923
AFIX 43
H26   2   0.016202   0.484000   0.082936    11.00000    -1.20000
AFIX 0
C27   1   0.109276   0.317051   0.513714    11.00000     0.10235     0.15628 =
      0.19273     0.01633    -0.02129     0.05538
C29X  1   0.164736   0.052530   0.554209    11.00000     0.03878     0.02552 =
      0.07546    -0.00131     0.00639    -0.00862
C30X  1   0.130459   0.306733   0.615785    11.00000     0.15408     0.21252 =
      0.04619    -0.03647    -0.03632     0.14584
C32X  1   0.051517   0.282410   0.596634    11.00000     0.10968     0.31069 =
      0.14094    -0.14565    -0.08504     0.14351
C34X  1   0.174885   0.352261   0.525777    10.85000     0.22782     0.19646 =
      0.07232     0.05829     0.04534     0.17371
HKLF 4
END
