TITL CrystalPilot n0075 in P -1
REM CrystalPilot node n0075 tool=model_disorder
CELL 0.71073 10.15540 12.70750 20.80080 107.6910 100.3150 96.2330
ZERR 2 0.00170 0.00210 0.00440 0.0030 0.0030 0.0020
LATT 1
SFAC C H N P Ni La
UNIT 88.0 108.0 16.0 4.0 2.0 2.0

DFIX 1.3900 0.010 C28 C40
DFIX 1.3900 0.010 C40 C42
DFIX 1.3900 0.010 C42 C34
DFIX 1.3900 0.010 C34 C39
DFIX 1.3900 0.010 C39 C43
DFIX 1.3900 0.010 C43 C28
FLAT 0.01 C28 C40 C42 C34 C39 C43

WGHT 0.082660 10.758620
FVAR 0.18998 0.78356 0.83298 0.73009 0.71848
LA1   6   0.429120   0.291514   0.269800    11.00000     0.04311     0.03269 =
      0.04263     0.00566     0.00730     0.00965
NI1   5   0.466932   0.070252   0.207512    11.00000     0.04994     0.03168 =
      0.04631     0.00540     0.01023     0.01108
P1    4   0.260799   0.052337   0.145795    11.00000     0.05176     0.03267 =
      0.04687     0.00303     0.00505     0.00682
P2    4   0.511730   0.071691   0.314999    11.00000     0.06011     0.03571 =
      0.04891     0.00985     0.00951     0.01476
N1    3   0.252209   0.280826   0.169721    11.00000     0.05694     0.03269 =
      0.04729     0.00719     0.00348     0.01113
N2    3   0.382926   0.246817   0.375491    11.00000     0.06401     0.04104 =
      0.04833     0.01032     0.01673     0.01603
N3    3   0.627179   0.295774   0.216870    11.00000     0.04675     0.04319 =
      0.05372     0.00978     0.00986     0.00301
C1    1   0.294796   0.493786   0.270006    11.00000     0.05560     0.03464 =
      0.04900     0.00692     0.00468     0.01234
N4    3   0.116911   0.348026   0.082373    11.00000     0.08666     0.06330 =
      0.05254     0.01554     0.00402     0.01297
N5    3   0.244727   0.448844   0.315868    11.00000     0.07117     0.05389 =
      0.05470     0.00763     0.00681     0.02285
N6    3   0.328311   0.458194   0.380232    11.00000     0.07044     0.04623 =
      0.05247     0.00363     0.00898     0.01952
C2    1   0.194722   0.362869   0.149765    11.00000     0.05402     0.03867 =
      0.04590     0.01365     0.00602     0.00986
C3    1   0.569909  -0.143777   0.142684    11.00000     0.08383     0.03409 =
      0.05636     0.00564     0.02057     0.02717
N7    3   0.212272   0.472663   0.199350    11.00000     0.06195     0.04903 =
      0.05750     0.01214     0.00737     0.00784
C4    1   0.593617   0.187172   0.192582    11.00000     0.05137     0.04689 =
      0.05792     0.01339     0.01351     0.01211
C5    1   0.429680   0.551372   0.289026    11.00000     0.06231     0.03894 =
      0.06553     0.01285     0.00623     0.00566
C6    1   0.274412   0.401964   0.425829    11.00000     0.06260     0.04958 =
      0.04232     0.00554     0.00643     0.01865
C7    1   0.219150   0.170820   0.115140    11.00000     0.07577     0.03961 =
      0.05043     0.00467    -0.00433     0.01430
C8    1   0.153779   0.557721   0.182694    11.00000     0.08384     0.04024 =
      0.06283     0.01518     0.00504     0.01599
N8    3   0.529913  -0.061258   0.166208    11.00000     0.07190     0.06162 =
      0.06638     0.01891     0.01341     0.01283
C9    1   0.194264   0.450722   0.469737    11.00000     0.07143     0.07009 =
      0.04989     0.00485     0.01657     0.02764
AFIX 43
H9    2   0.172714   0.520289   0.470440    11.00000    -1.20000
AFIX 0
C10   1   0.460716   0.514898   0.397169    11.00000     0.06607     0.04369 =
      0.05138     0.00141    -0.00277     0.00832
C11   1   0.735884   0.360499   0.198494    11.00000     0.05918     0.04956 =
      0.08430     0.01716     0.02996     0.00201
C12   1   0.059962   0.434662   0.067478    11.00000     0.10342     0.05914 =
      0.05116     0.02332    -0.00694     0.01045
AFIX 43
H12   2   0.008837   0.421552   0.023120    11.00000    -1.20000
AFIX 0
C13   1   0.309862   0.295232   0.421858    11.00000     0.06380     0.04540 =
      0.04460     0.00705     0.01240     0.01168
C14   1   0.176484   0.296750   0.511441    11.00000     0.08426     0.08079 =
      0.05869     0.01306     0.02648     0.01237
AFIX 43
H14   2   0.143092   0.261007   0.539635    11.00000    -1.20000
AFIX 0
C15   1   0.690010   0.134630   0.364890    11.00000     0.06584     0.05755 =
      0.06156     0.02000    -0.00191     0.01165
PART 1
C16   1   0.105420   0.016560   0.177200    21.00000     0.07511
PART 0
C17   1   0.514287   0.561705   0.353197    11.00000     0.06655     0.04522 =
      0.06360     0.00794    -0.00234    -0.00248
C18   1   0.717344   0.263056   0.386419    11.00000     0.07296     0.06879 =
      0.07294     0.01674     0.00387     0.00402
AFIX 137
H18A  2   0.809750   0.291163   0.411751    11.00000    -1.50000
H18B  2   0.657035   0.293216   0.415134    11.00000    -1.50000
H18C  2   0.702350   0.285148   0.345843    11.00000    -1.50000
AFIX 0
C19   1   0.415970   0.138890   0.381000    11.00000     0.07919     0.04669 =
      0.04970     0.01611     0.01948     0.02139
C20   1   0.076691   0.540361   0.116566    11.00000     0.11324     0.05255 =
      0.06096     0.02281    -0.00004     0.02950
AFIX 43
H20   2   0.037844   0.597556   0.105715    11.00000    -1.20000
AFIX 0
C21   1   0.257962   0.244992   0.468438    11.00000     0.08306     0.06117 =
      0.05346     0.01754     0.02419     0.01489
AFIX 43
H21   2   0.279733   0.176274   0.469605    11.00000    -1.20000
AFIX 0
PART 1
C22   1   0.221000  -0.056050   0.057440    21.00000     0.07109
PART 0
C23   1   0.144839   0.399165   0.512866    11.00000     0.07574     0.09625 =
      0.06032     0.01585     0.02860     0.03465
AFIX 43
H23   2   0.091337   0.433653   0.542091    11.00000    -1.20000
AFIX 0
C24   1   0.497630  -0.073260   0.321780    11.00000     0.10461     0.04233 =
      0.07766     0.02489     0.01519     0.01978
PART 1
C25   1   0.336886  -0.040176   0.019225    21.00000     0.08809
AFIX 137
PART 0
H25A  2   0.315704  -0.095984  -0.025948    11.00000    -1.50000
H25B  2   0.421163  -0.047926   0.045339    11.00000    -1.50000
H25C  2   0.345034   0.033141   0.014790    11.00000    -1.50000
AFIX 0
C26   1   0.359128  -0.142352   0.283301    11.00000     0.10709     0.05231 =
      0.10290     0.02447     0.01599    -0.00782
AFIX 137
H26A  2   0.354186  -0.215817   0.287436    11.00000    -1.50000
H26B  2   0.345230  -0.148608   0.235311    11.00000    -1.50000
H26C  2   0.290132  -0.106449   0.302754    11.00000    -1.50000
AFIX 0
C27   1   0.608646  -0.252718   0.114389    11.00000     0.09555     0.04538 =
      0.08529     0.01104     0.03116     0.03821
PART 1
C28   1   1.092752   0.715077   0.371313    51.00000     0.11502
AFIX 43
PART 0
H28   2   1.103373   0.640276   0.358924    11.00000    -1.20000
AFIX 0
C29   1   0.790933   0.087764   0.323233    11.00000     0.06237     0.10920 =
      0.11468     0.03244     0.00821     0.03490
AFIX 137
H29A  2   0.881693   0.120904   0.349562    11.00000    -1.50000
H29B  2   0.776237   0.104758   0.280853    11.00000    -1.50000
H29C  2   0.778852   0.007918   0.312874    11.00000    -1.50000
AFIX 0
PART 1
C30   1   0.196327  -0.175307   0.062117    21.00000     0.09463
AFIX 137
PART 0
H30A  2   0.176138  -0.229526   0.016425    11.00000    -1.50000
H30B  2   0.121168  -0.182934   0.083503    11.00000    -1.50000
H30C  2   0.276337  -0.187598   0.089330    11.00000    -1.50000
AFIX 0
PART 1
C31   1   0.856064   0.303891   0.190074    31.00000     0.13048
AFIX 137
PART 0
H31A  2   0.922753   0.349827   0.178222    11.00000    -1.50000
H31B  2   0.828076   0.232557   0.153899    11.00000    -1.50000
H31C  2   0.894651   0.292884   0.232685    11.00000    -1.50000
AFIX 0
PART 1
C32   1   0.100792   0.097684   0.243202    21.00000     0.10245
AFIX 137
PART 0
H32A  2   0.019688   0.075692   0.256968    11.00000    -1.50000
H32B  2   0.100705   0.170471   0.238412    11.00000    -1.50000
H32C  2   0.178934   0.100336   0.277710    11.00000    -1.50000
AFIX 0
PART 1
C33   1  -0.035644  -0.002610   0.126569    21.00000     0.12224
AFIX 137
PART 0
H33A  2  -0.106819  -0.020242   0.148345    11.00000    -1.50000
H33B  2  -0.040152  -0.063623   0.084998    11.00000    -1.50000
H33C  2  -0.046501   0.064274   0.115303    11.00000    -1.50000
AFIX 0
PART 1
C34   1   1.057900   0.936371   0.406119    51.00000     0.15213
AFIX 43
PART 0
H34   2   1.046853   1.011064   0.418195    11.00000    -1.20000
AFIX 0
C35   1   0.541747  -0.081102   0.394469    11.00000     0.18027     0.07200 =
      0.09800     0.04794     0.00628     0.02452
AFIX 137
H35A  2   0.530253  -0.158465   0.391693    11.00000    -1.50000
H35B  2   0.487010  -0.042528   0.423852    11.00000    -1.50000
H35C  2   0.635574  -0.047219   0.413329    11.00000    -1.50000
AFIX 0
PART 1
C36   1   0.773296   0.474799   0.249377    31.00000     0.17782
AFIX 137
PART 0
H36A  2   0.843875   0.516966   0.237534    11.00000    -1.50000
H36B  2   0.805181   0.470719   0.294733    11.00000    -1.50000
H36C  2   0.695178   0.511097   0.248977    11.00000    -1.50000
AFIX 0
PART 1
C37   1   0.639244  -0.259432   0.047233    41.00000     0.12781
AFIX 137
PART 0
H37A  2   0.665198  -0.330532   0.027208    11.00000    -1.50000
H37B  2   0.712455  -0.200139   0.053483    11.00000    -1.50000
H37C  2   0.560140  -0.252027   0.016978    11.00000    -1.50000
AFIX 0
PART 1
C38   1   0.676919   0.370142   0.127024    31.00000     0.12654
AFIX 137
PART 0
H38A  2   0.745310   0.411894   0.113588    11.00000    -1.50000
H38B  2   0.600295   0.408056   0.129818    11.00000    -1.50000
H38C  2   0.648548   0.296462   0.093299    11.00000    -1.50000
AFIX 0
PART 1
C39   1   1.149807   0.902210   0.448629    51.00000     0.15682
AFIX 43
PART 0
H39   2   1.201056   0.954439   0.489808    11.00000    -1.20000
AFIX 0
PART 1
C40   1   1.001765   0.750722   0.329724    51.00000     0.15436
AFIX 43
PART 0
H40   2   0.950289   0.698710   0.288522    11.00000    -1.20000
AFIX 0
PART 1
C41   1   0.483652  -0.346063   0.103907    41.00000     0.15199
AFIX 137
PART 0
H41A  2   0.506859  -0.418758   0.085256    11.00000    -1.50000
H41B  2   0.407340  -0.337463   0.072421    11.00000    -1.50000
H41C  2   0.460601  -0.338842   0.147657    11.00000    -1.50000
AFIX 0
PART 1
C42   1   0.982773   0.859986   0.345975    51.00000     0.16834
AFIX 43
PART 0
H42   2   0.919593   0.881561   0.316389    11.00000    -1.20000
AFIX 0
PART 1
C43   1   1.168238   0.791995   0.431812    51.00000     0.16775
AFIX 43
PART 0
H43   2   1.231344   0.770186   0.461302    11.00000    -1.20000
AFIX 0
PART 1
C44   1   0.722443  -0.264549   0.165468    41.00000     0.14785
AFIX 137
PART 0
H44A  2   0.749084  -0.336048   0.147499    11.00000    -1.50000
H44B  2   0.694163  -0.259459   0.207789    11.00000    -1.50000
H44C  2   0.798037  -0.205829   0.174311    11.00000    -1.50000
AFIX 0
PART 2
C22B  1   0.247000  -0.041000   0.054000   -21.00000     0.07109
C25B  1   0.376200  -0.015800   0.028200   -21.00000     0.08809
C30B  1   0.213000  -0.165000   0.047000   -21.00000     0.09463
C16B  1   0.109800  -0.013500   0.168500   -21.00000     0.07511
C33B  1  -0.025900  -0.058900   0.114100   -21.00000     0.12224
C32B  1   0.098800   0.024800   0.238800   -21.00000     0.10245
C36B  1   0.839400   0.415400   0.265400   -31.00000     0.17782
C38B  1   0.670000   0.450000   0.175000   -31.00000     0.12654
C31B  1   0.797300   0.293300   0.141300   -31.00000     0.13048
C44B  1   0.753000  -0.255000   0.143000   -41.00000     0.14785
C37B  1   0.571400  -0.286600   0.036400   -41.00000     0.12781
C41B  1   0.511000  -0.331000   0.137000   -41.00000     0.15199
C28B  1   1.175900   0.744900   0.405900   -51.00000     0.11502
C43B  1   1.201700   0.855700   0.446700   -51.00000     0.16775
C39B  1   1.114500   0.926500   0.434500   -51.00000     0.15682
C34B  1   1.000000   0.884000   0.383000   -51.00000     0.15213
C42B  1   0.971300   0.772300   0.344300   -51.00000     0.16834
C40B  1   1.062600   0.703600   0.353600   -51.00000     0.15436
PART 0
HKLF 4
END
