TITL CrystalPilot n0004 in I 41/a m d :2
REM CrystalPilot node n0004 tool=add_atoms_from_difference_map
REM R1 = 0.1914 wR2 = 0.5218 GooF = 4.174
CELL 1.54178 15.85170 15.85170 57.50380 90.0000 90.0000 90.0000
ZERR 4 0.00010 0.00010 0.00130 0.0000 0.0000 0.0000
LATT 2
SYMM -Y+1/4,X+3/4,Z+1/4
SYMM Y+1/4,-X+1/4,Z+3/4
SYMM X,-Y,-Z
SYMM -X,Y+1/2,-Z
SYMM -X,-Y+1/2,Z
SYMM Y+1/4,X+3/4,-Z+1/4
SYMM -Y+1/4,-X+1/4,-Z+3/4
SFAC C O Zr
UNIT 208.0 128.0 24.0

WGHT 0.100000 0.000000
FVAR 0.11533
FE01  3   0.000000   0.250000   0.331563    10.25000     0.05102     0.02723 =
      0.03250     0.00000    -0.00000    -0.00000
ZR02  3   0.110255   0.360255   0.375000    10.50000     0.05839     0.05839 =
      0.03903    -0.00317     0.00317    -0.02846
O004  2   0.128791   0.250000   0.350470    10.50000     0.04812
O005  2   0.088759   0.334962   0.437212    11.00000     0.07625
O006  2   0.159994   0.405094   0.408378    11.00000     0.08799
O007  2   0.075693   0.500555   0.373896    11.00000     0.09992
C008  1   0.216489   0.387155   0.468900    11.00000     0.06762
C009  1   0.215365   0.415269   0.445187    11.00000     0.07062
C00A  1   0.149480   0.383915   0.428895    11.00000     0.06754
C00B  1   0.500000   0.471088   0.477527    10.50000     0.08614
C00D  1   0.344353   0.467338   0.474204    11.00000     0.07527
C00E  1   0.424395   0.489194   0.488221    11.00000     0.06519
C00F  1   0.275052   0.476043   0.437371    11.00000     0.08386
O5X   2   0.000000   0.156000   0.356400    10.50000     0.06000
HKLF 4
END
