TITL CrystalPilot n0008 in P 21 21 21
REM CrystalPilot node n0008 tool=add_atoms_from_difference_map
REM R1 = 0.0511 wR2 = 0.1718 GooF = 1.183
CELL 0.68890 5.42807 8.12883 12.05269 90.0000 90.0000 90.0000
ZERR 4 0.00000 0.00000 0.00000 0.0000 0.0000 0.0000
LATT -1
SYMM X+1/2,-Y+1/2,-Z
SYMM -X,Y+1/2,-Z+1/2
SYMM -X+1/2,-Y,Z+1/2
SFAC C H N O S
UNIT 12.0 28.0 4.0 8.0 4.0

WGHT 0.100000 0.000000
FVAR 1.15658
C1    5   0.118835   0.413403   0.524185    11.00000     0.02994     0.01843 =
      0.01660     0.00350     0.00026    -0.00409
C2    4   0.207582   0.216656   0.118939    11.00000     0.01053     0.02162 =
      0.02028     0.00659     0.00039    -0.00285
C3    4   0.230889   0.008832   0.240051    11.00000     0.01657     0.02660 =
      0.02854     0.01335    -0.00195     0.00152
C4    3   0.214978   0.266461   0.874494    11.00000     0.00912     0.01640 =
      0.01653    -0.00078    -0.00153     0.00000
AFIX 93
HC4A  2   0.141683   0.195335   0.833257    11.00000    -1.20000
HC4B  2   0.219825   0.252777   0.945215    11.00000    -1.20000
AFIX 0
C5    1   0.166910   0.587194   0.323620    11.00000     0.01109     0.01719 =
      0.01343    -0.00023     0.00066     0.00264
AFIX 13
H5    2   0.224803   0.578879   0.246809    11.00000    -1.20000
AFIX 0
C6    1   0.242299   0.429741   0.384135    11.00000     0.01651     0.01688 =
      0.01956     0.00247    -0.00044     0.00306
C7    1   0.114467   0.105495   0.178898    11.00000     0.01138     0.01695 =
      0.01491     0.00135    -0.00010    -0.00106
H4X   2   0.196000   0.341400   0.344400    11.00000     0.06000
H5X   2   0.077300   0.278200   0.872000    11.00000     0.06000
H6X   2   0.092100   0.589500   0.889100    11.00000     0.06000
H7X   2   0.204900   0.832000   0.343000    11.00000     0.06000
HKLF 4
END
