TITL CrystalPilot n0055 in C 2 2 21
REM CrystalPilot node n0055 tool=add_hydrogens
CELL 0.68914 15.79000 32.31000 11.86000 90.0000 90.0000 90.0000
ZERR 8 0 0 0 0 0 0
LATT -7
SYMM X,-Y,-Z
SYMM -X,Y,-Z+1/2
SYMM -X,-Y,Z+1/2
SFAC C H O Cu
UNIT 194.8 100.0 56.0 8.0

WGHT 0.123330 3.600130
FVAR 0.27725
CU1   4   0.068937   0.019837   0.363623    11.00000     0.03938     0.02000 =
      0.08228     0.00107    -0.01855    -0.00185
C1    1   0.071275   0.294557   0.210516    11.00000     0.03082     0.01897 =
      0.04909    -0.00436     0.00997    -0.00167
C2    1   0.000000   0.272438   0.250000    10.50000     0.03496     0.01385 =
      0.04888     0.00000     0.00656     0.00000
C3    1   0.000000   0.405884   0.250000    10.50000     0.08287     0.01101 =
      0.04581     0.00000     0.00752     0.00000
O1    3   0.158902   0.046621   0.448912    11.00000     0.05071     0.04972 =
      0.07676     0.00435    -0.02750    -0.02313
C4    1   0.000000   0.360058   0.250000    10.50000     0.04597     0.01523 =
      0.04767     0.00000     0.01149     0.00000
C5    1   0.071430   0.337812   0.211559    11.00000     0.03618     0.02267 =
      0.04597    -0.00342     0.00643    -0.00492
O2    3   0.031997   0.076156   0.335000    11.00000     0.08890     0.02128 =
      0.09362     0.00366    -0.03386     0.00439
C6    1   0.000000   0.140390   0.250000    10.50000     0.05999     0.01406 =
      0.05851     0.00000    -0.01680     0.00000
O3    3   0.000000  -0.002198   0.250000    10.50000     0.11017     0.02485 =
      0.15568     0.00000    -0.08273     0.00000
C7    1   0.217805   0.218418   0.062981    11.00000     0.13062     0.11571 =
      0.04013     0.00276     0.01578     0.08802
AFIX 43
H7    2   0.216929   0.200342   0.001968    11.00000    -1.20000
AFIX 0
O4    3   0.122751   0.034021   0.627778    11.00000     0.05508     0.03492 =
      0.09017    -0.01350     0.03178    -0.02236
C8    1   0.147909   0.271234   0.175414    11.00000     0.04305     0.02804 =
      0.04624    -0.00569     0.01286     0.00228
C9    1   0.000000   0.226577   0.250000    10.50000     0.03940     0.01850 =
      0.05139     0.00000     0.00097     0.00000
C10   1   0.229203   0.083087   0.592134    11.00000     0.03884     0.03176 =
      0.05765     0.00007     0.00045    -0.01034
C11   1   0.145148   0.362586   0.168535    11.00000     0.04322     0.03458 =
      0.04923    -0.00282     0.00253    -0.01812
C12   1   0.168409   0.362289   0.054726    11.00000     0.04287     0.04007 =
      0.04787     0.00139     0.00503    -0.01627
AFIX 43
H12   2   0.143018   0.343870   0.004845    11.00000    -1.20000
AFIX 0
C13   3   0.120831   0.332564   0.724771    11.00000     0.12770     0.14872 =
      0.05613    -0.01073    -0.00984     0.09210
C14   1   0.146338   0.243321   0.085777    11.00000     0.09018     0.04641 =
      0.04203    -0.00352     0.01319     0.02604
AFIX 43
H14   2   0.098206   0.241104   0.040989    11.00000    -1.20000
AFIX 0
C15   1   0.207091   0.250432   0.718789    11.00000     0.05117     0.11952 =
      0.06511    -0.00768    -0.00704     0.03921
AFIX 43
H15   2   0.158797   0.248033   0.763197    11.00000    -1.20000
AFIX 0
C16   1   0.229636   0.389702   0.017069    11.00000     0.04448     0.03547 =
      0.05952    -0.00214     0.01400    -0.01132
AFIX 43
H16   2   0.243837   0.390167  -0.059022    11.00000    -1.20000
AFIX 0
C17   1   0.054382   0.161744   0.321440    11.00000     0.05898     0.02481 =
      0.07120    -0.00125    -0.02339     0.00135
AFIX 43
H17   2   0.090012   0.147416   0.370175    11.00000    -1.20000
AFIX 0
C18   1   0.054923   0.204487   0.319255    11.00000     0.04569     0.02011 =
      0.06211    -0.00045    -0.01550     0.00124
AFIX 43
H18   2   0.092763   0.218791   0.364998    11.00000    -1.20000
AFIX 0
C19   1   0.222249   0.274451   0.237633    11.00000     0.03645     0.06633 =
      0.07916    -0.00830     0.00489     0.01356
AFIX 43
H19   2   0.224939   0.294179   0.294621    11.00000    -1.20000
AFIX 0
C20   1   0.002289   0.427422   0.150204    11.00000     0.17656     0.02072 =
      0.04281     0.00286     0.01498     0.00411
AFIX 43
H20   2  -0.000025   0.413227   0.082058    11.00000    -1.20000
AFIX 0
O5    3   0.030271   0.000000   0.000000    10.50000     0.04078     0.11784 =
      0.13910    -0.02768     0.00000     0.00000
C21   1   0.211392   0.279380   0.630009    11.00000     0.10446     0.14576 =
      0.04987    -0.01184    -0.02249     0.09301
C22   1   0.188092   0.388244   0.244573    11.00000     0.07868     0.05187 =
      0.04667    -0.00324    -0.00460    -0.03134
AFIX 43
H22   2   0.175371   0.386914   0.321051    11.00000    -1.20000
AFIX 0
C23   1   0.000000   0.492785   0.250000    10.50000     0.53435     0.02175 =
      0.04929     0.00000     0.06146     0.00000
AFIX 43
H23   2   0.000000   0.521569   0.250000    10.50000    -1.20000
AFIX 0
C24   1   0.000000   0.092406   0.250000    10.50000     0.06240     0.02028 =
      0.07095     0.00000    -0.02011     0.00000
C25   1   0.250887   0.084525   0.706917    11.00000     0.06213     0.04584 =
      0.05274    -0.00066     0.00346    -0.02841
AFIX 43
H25   2   0.223953   0.067021   0.757799    11.00000    -1.20000
AFIX 0
C26   1   0.008006   0.470025   0.150648    11.00000     0.39462     0.02321 =
      0.04534     0.00363     0.04080     0.01204
AFIX 43
H26   2   0.017422   0.483899   0.083097    11.00000    -1.20000
AFIX 0
C27   3   0.109806   0.317000   0.513896    11.00000     0.10544     0.15950 =
      0.17635     0.02449    -0.02356     0.05334
C29X  1   0.164627   0.052629   0.554154    11.00000     0.03857     0.02604 =
      0.07447    -0.00182     0.00705    -0.00882
C30X  1   0.130919   0.306906   0.616070    11.00000     0.15247     0.20976 =
      0.04557    -0.03617    -0.03609     0.14366
C32X  3   0.051617   0.282182   0.596816    11.00000     0.10991     0.30491 =
      0.14004    -0.14447    -0.08303     0.14138
C34X  1   0.175167   0.352365   0.526043    10.85000     0.22340     0.17960 =
      0.07295     0.05586     0.04603     0.16480
HKLF 4
END
