TITL CrystalPilot n0003 in C 2 2 21
REM CrystalPilot node n0003 tool=refine
REM R1 = 0.0907 wR2 = 0.2748 GooF = 2.496
CELL 0.68914 15.79000 32.31000 11.86000 90.0000 90.0000 90.0000
ZERR 8 0 0 0 0 0 0
LATT -7
SYMM X,-Y,-Z
SYMM -X,Y,-Z+1/2
SYMM -X,-Y,Z+1/2
SFAC C O Cu
UNIT 240.0 32.0 8.0

WGHT 0.100000 0.000000
FVAR 0.28730
CU1   3   0.069014   0.019823   0.363599    11.00000     0.04015     0.02112 =
      0.08256     0.00097    -0.01821    -0.00169
C1    1   0.071498   0.294301   0.210788    11.00000     0.03285     0.01967 =
      0.05151    -0.00443     0.00909    -0.00239
C2    1   0.000000   0.272102   0.250000    10.50000     0.03493     0.01823 =
      0.04714     0.00000     0.00584    -0.00000
C3    1   0.000000   0.405507   0.250000    10.50000     0.09682     0.01061 =
      0.04572     0.00000    -0.00033    -0.00000
O1    2   0.159402   0.046723   0.449575    11.00000     0.04524     0.04269 =
      0.07650     0.00489    -0.01717    -0.01775
C4    1   0.000000   0.359860   0.250000    10.50000     0.04748     0.01758 =
      0.04410     0.00000     0.00696    -0.00000
C5    1   0.071971   0.337641   0.211328    11.00000     0.04126     0.02291 =
      0.04653    -0.00302     0.00607    -0.00578
O2    2   0.031802   0.076428   0.335851    11.00000     0.08221     0.02060 =
      0.09459     0.00058    -0.02591     0.00358
C6    1   0.000000   0.140522   0.250000    10.50000     0.05428     0.01918 =
      0.06953     0.00000    -0.00851    -0.00000
O3    2   0.000000  -0.001954   0.250000    10.50000     0.10561     0.02585 =
      0.16608     0.00000    -0.08566    -0.00000
C7    1   0.218196   0.218397   0.063423    11.00000     0.10852     0.09972 =
      0.04459    -0.00098     0.01166     0.06618
O4    2   0.123187   0.033794   0.628947    11.00000     0.05785     0.03737 =
      0.09484    -0.01269     0.03059    -0.01702
C8    1   0.148245   0.271072   0.175502    11.00000     0.04515     0.03269 =
      0.05287    -0.00622     0.01547     0.00399
C9    1   0.000000   0.226469   0.250000    10.50000     0.03988     0.02058 =
      0.05575     0.00000     0.00070    -0.00000
C10   1   0.229584   0.083248   0.592563    11.00000     0.04094     0.03460 =
      0.06046    -0.00128     0.00082    -0.01302
C11   1   0.144735   0.362292   0.169491    11.00000     0.04673     0.03463 =
      0.04866    -0.00153     0.00266    -0.01729
C12   1   0.168424   0.361923   0.055665    11.00000     0.04155     0.04307 =
      0.05132    -0.00858     0.00739    -0.01544
C13   1   0.121866   0.334117   0.724238    11.00000     0.13282     0.13761 =
      0.06412    -0.01018    -0.00806     0.09368
C14   1   0.145996   0.242971   0.085485    11.00000     0.08862     0.04769 =
      0.04632    -0.00322     0.01621     0.02571
C15   1   0.206997   0.250053   0.717501    11.00000     0.05593     0.10094 =
      0.07803    -0.01874    -0.01851     0.03017
C16   1   0.229508   0.390190   0.017232    11.00000     0.04960     0.03520 =
      0.05683    -0.00274     0.00878    -0.01127
C17   1   0.054613   0.161672   0.320922    11.00000     0.05760     0.02526 =
      0.07369    -0.00351    -0.01543     0.00278
C18   1   0.055213   0.204667   0.318842    11.00000     0.05070     0.02537 =
      0.06104    -0.00070    -0.00983     0.00419
C19   1   0.222671   0.274281   0.237103    11.00000     0.04106     0.07378 =
      0.07803    -0.00778     0.01038     0.00651
C20   1   0.003645   0.427741   0.149757    11.00000     0.16305     0.02014 =
      0.04312     0.00370     0.01500     0.00102
O5    2   0.030050   0.000000   0.000000    10.50000     0.04611     0.12093 =
      0.14349    -0.04412    -0.00000    -0.00000
C21   1   0.209228   0.278333   0.630201    11.00000     0.09521     0.13091 =
      0.05128    -0.00689    -0.01735     0.07740
C22   1   0.187912   0.388281   0.244460    11.00000     0.07960     0.05390 =
      0.04892    -0.00394    -0.00565    -0.02784
C23   1   0.000000   0.491816   0.250000    10.50000     0.73786     0.01365 =
      0.05363     0.00000     0.06932    -0.00000
C24   1   0.000000   0.092850   0.250000    10.50000     0.05624     0.03148 =
      0.07632     0.00000    -0.01350    -0.00000
C25   1   0.250928   0.084157   0.707556    11.00000     0.06734     0.04857 =
      0.06074     0.00139     0.00716    -0.02699
C26   1   0.006619   0.470183   0.150018    11.00000     0.46576     0.02286 =
      0.04967     0.00480     0.02805     0.00631
C27   1   0.108242   0.316655   0.512306    11.00000     0.08538     0.11486 =
      0.20755     0.03068    -0.01988     0.03206
C28   1   0.000000   0.461511   0.750000    10.50000     1.81964     0.01110 =
      0.07380     0.00000    -0.15324    -0.00000
C29X  1   0.164756   0.052752   0.553220    11.00000     0.03937     0.02455 =
      0.07974    -0.00265     0.00647    -0.00581
C30X  1   0.128118   0.305492   0.617085    11.00000     0.13394     0.19472 =
      0.06276    -0.03379    -0.03744     0.12541
C31X  1   0.035421   0.440547   0.847188    11.00000     0.39871     0.03002 =
      0.09330    -0.00029    -0.07631     0.02533
C32X  1   0.048258   0.279191   0.600900    11.00000     0.10759     0.32541 =
      0.13936    -0.14097    -0.08668     0.14323
C33X  1   0.070677   0.294592   0.550194    11.00000     0.36518     1.32931 =
      1.11692     0.16419     0.57487     0.09884
C34X  1   0.172625   0.350450   0.525401    11.00000     0.35468     0.24867 =
      0.07763     0.05715     0.05116     0.25314
HKLF 4
END
