TITL CrystalPilot n0035 in P -1
REM CrystalPilot node n0035 tool=run_shelxl
REM R1 = 0.0684 wR2 = 0.2219 GooF = 1.003
CELL 0.71073 10.15540 12.70750 20.80080 107.6910 100.3150 96.2330
ZERR 2 0.00170 0.00210 0.00440 0.0030 0.0030 0.0020
LATT 1
SFAC C H N P Ni La
UNIT 88.0 110.0 16.0 4.0 2.0 2.0

DFIX 1.3900 0.020 C28 C40
DFIX 1.3900 0.020 C40 C42
DFIX 1.3900 0.020 C42 C34
DFIX 1.3900 0.020 C34 C39
DFIX 1.3900 0.020 C39 C43
DFIX 1.3900 0.020 C43 C28
FLAT 0.02 C28 C40 C42 C34 C39 C43

WGHT 0.103410 10.855882
FVAR 0.18907
LA1   6   0.429123   0.291514   0.269802    11.00000     0.04336     0.03295 =
      0.04287     0.00573     0.00739     0.00967
NI1   5   0.466904   0.070232   0.207496    11.00000     0.04985     0.03165 =
      0.04627     0.00537     0.01026     0.01103
P1    4   0.260783   0.052314   0.145768    11.00000     0.05160     0.03254 =
      0.04673     0.00299     0.00507     0.00678
P2    4   0.511731   0.071654   0.314977    11.00000     0.05988     0.03552 =
      0.04876     0.00981     0.00949     0.01465
N1    3   0.252221   0.280836   0.169688    11.00000     0.05647     0.03292 =
      0.04688     0.00724     0.00352     0.01095
N2    3   0.382864   0.246789   0.375502    11.00000     0.06403     0.04062 =
      0.04793     0.01020     0.01667     0.01562
N3    3   0.627190   0.295747   0.216871    11.00000     0.04634     0.04293 =
      0.05369     0.00952     0.00957     0.00273
C1    1   0.294766   0.493771   0.270017    11.00000     0.05528     0.03423 =
      0.04924     0.00687     0.00448     0.01180
N4    3   0.116850   0.348004   0.082372    11.00000     0.08594     0.06235 =
      0.05221     0.01521     0.00376     0.01258
N5    3   0.244799   0.448840   0.315860    11.00000     0.06923     0.05389 =
      0.05444     0.00769     0.00640     0.02209
N6    3   0.328317   0.458221   0.380191    11.00000     0.06985     0.04592 =
      0.05192     0.00333     0.00870     0.01929
C2    1   0.194766   0.362827   0.149778    11.00000     0.05389     0.03835 =
      0.04575     0.01352     0.00616     0.00998
C3    1   0.569927  -0.143738   0.142646    11.00000     0.08525     0.03424 =
      0.05634     0.00565     0.02101     0.02766
N7    3   0.212259   0.472691   0.199371    11.00000     0.06102     0.04849 =
      0.05684     0.01194     0.00739     0.00754
C4    1   0.593617   0.187167   0.192562    11.00000     0.05117     0.04680 =
      0.05769     0.01332     0.01404     0.01229
C5    1   0.429689   0.551408   0.288946    11.00000     0.06199     0.03890 =
      0.06523     0.01298     0.00596     0.00558
C6    1   0.274397   0.401947   0.425803    11.00000     0.06272     0.04962 =
      0.04217     0.00522     0.00641     0.01875
C7    1   0.219226   0.170842   0.115058    11.00000     0.07516     0.03981 =
      0.05011     0.00460    -0.00414     0.01441
C8    1   0.153841   0.557830   0.182771    11.00000     0.08398     0.04007 =
      0.06204     0.01496     0.00498     0.01578
AFIX 43
H8    2   0.166379   0.627884   0.216511    11.00000    -1.20000
AFIX 0
N8    3   0.529810  -0.061286   0.166181    11.00000     0.07152     0.06045 =
      0.06584     0.01838     0.01359     0.01304
C9    1   0.194232   0.450706   0.469732    11.00000     0.07240     0.07093 =
      0.04984     0.00502     0.01704     0.02879
AFIX 43
H9    2   0.172674   0.520275   0.470446    11.00000    -1.20000
AFIX 0
C10   1   0.460661   0.514859   0.397227    11.00000     0.06603     0.04318 =
      0.05161     0.00158    -0.00289     0.00805
C11   1   0.735875   0.360504   0.198457    11.00000     0.05859     0.04905 =
      0.08445     0.01694     0.03004     0.00175
C12   1   0.059739   0.434709   0.067505    11.00000     0.10211     0.05966 =
      0.05078     0.02329    -0.00704     0.01001
AFIX 43
H12   2   0.008337   0.421527   0.023196    11.00000    -1.20000
AFIX 0
C13   1   0.309891   0.295179   0.421840    11.00000     0.06375     0.04509 =
      0.04445     0.00700     0.01233     0.01129
C14   1   0.176481   0.296676   0.511499    11.00000     0.08527     0.08060 =
      0.05897     0.01294     0.02662     0.01226
AFIX 43
H14   2   0.143139   0.260940   0.539708    11.00000    -1.20000
AFIX 0
C15   1   0.690074   0.134585   0.364959    11.00000     0.06525     0.05780 =
      0.06148     0.02007    -0.00212     0.01152
C16   1   0.105358   0.016512   0.177274    11.00000     0.04576     0.08404 =
      0.08858     0.02740     0.00823    -0.00276
C17   1   0.514316   0.561740   0.353209    11.00000     0.06659     0.04500 =
      0.06332     0.00785    -0.00198    -0.00252
C18   1   0.717338   0.263127   0.386503    11.00000     0.07074     0.06933 =
      0.07449     0.01691     0.00340     0.00450
AFIX 137
H18A  2   0.809713   0.291281   0.411872    11.00000    -1.50000
H18B  2   0.656953   0.293247   0.415181    11.00000    -1.50000
H18C  2   0.702392   0.285211   0.345924    11.00000    -1.50000
AFIX 0
C19   1   0.415916   0.138863   0.381126    11.00000     0.07973     0.04633 =
      0.04937     0.01590     0.01955     0.02150
C20   1   0.076716   0.540391   0.116495    11.00000     0.11401     0.05237 =
      0.06066     0.02249    -0.00038     0.03009
AFIX 43
H20   2   0.038088   0.597634   0.105587    11.00000    -1.20000
AFIX 0
C21   1   0.258026   0.244980   0.468441    11.00000     0.08357     0.06128 =
      0.05275     0.01731     0.02426     0.01520
AFIX 43
H21   2   0.279851   0.176276   0.469607    11.00000    -1.20000
AFIX 0
C22   1   0.220827  -0.056036   0.057386    11.00000     0.08421     0.04877 =
      0.05630    -0.00392    -0.00563     0.01365
C23   1   0.144816   0.399102   0.512865    11.00000     0.07580     0.09583 =
      0.06055     0.01561     0.02911     0.03441
AFIX 43
H23   2   0.091276   0.433583   0.542070    11.00000    -1.20000
AFIX 0
C24   1   0.497787  -0.073193   0.321740    11.00000     0.10588     0.04148 =
      0.07693     0.02421     0.01478     0.01955
C25   1   0.336967  -0.040176   0.019216    11.00000     0.11824     0.07675 =
      0.05913     0.00523     0.01931     0.03259
AFIX 137
H25A  2   0.315804  -0.095924  -0.025978    11.00000    -1.50000
H25B  2   0.421159  -0.048040   0.045347    11.00000    -1.50000
H25C  2   0.345270   0.033177   0.014835    11.00000    -1.50000
AFIX 0
C26   1   0.359106  -0.142352   0.283342    11.00000     0.10943     0.05136 =
      0.10166     0.02392     0.01609    -0.00814
AFIX 137
H26A  2   0.354248  -0.215818   0.287470    11.00000    -1.50000
H26B  2   0.345012  -0.148604   0.235348    11.00000    -1.50000
H26C  2   0.290187  -0.106455   0.302878    11.00000    -1.50000
AFIX 0
C27   1   0.608791  -0.252692   0.114409    11.00000     0.09668     0.04465 =
      0.08475     0.01092     0.03123     0.03847
C28   1   1.091984   0.715958   0.371185    11.00000     0.15075     0.07888 =
      0.12098     0.03463     0.04361     0.03955
AFIX 43
H28   2   1.102268   0.641074   0.358510    11.00000    -1.20000
AFIX 0
C29   1   0.790866   0.087710   0.323114    11.00000     0.06089     0.10973 =
      0.11471     0.03426     0.00860     0.03393
AFIX 137
H29A  2   0.881691   0.120728   0.349392    11.00000    -1.50000
H29B  2   0.776069   0.104866   0.280789    11.00000    -1.50000
H29C  2   0.778689   0.007842   0.312653    11.00000    -1.50000
AFIX 0
C30   1   0.196291  -0.175208   0.062096    11.00000     0.10591     0.04451 =
      0.09523    -0.00860    -0.01128     0.00711
AFIX 137
H30A  2   0.176014  -0.229448   0.016409    11.00000    -1.50000
H30B  2   0.121221  -0.182833   0.083541    11.00000    -1.50000
H30C  2   0.276376  -0.187470   0.089268    11.00000    -1.50000
AFIX 0
C31   1   0.855811   0.303692   0.189875    11.00000     0.07080     0.12533 =
      0.23148     0.07375     0.08531     0.02953
AFIX 137
H31A  2   0.922540   0.349571   0.178009    11.00000    -1.50000
H31B  2   0.827605   0.232415   0.153660    11.00000    -1.50000
H31C  2   0.894441   0.292544   0.232435    11.00000    -1.50000
AFIX 0
C32   1   0.100781   0.097513   0.243216    11.00000     0.07745     0.13347 =
      0.08470     0.02158     0.02014     0.01932
AFIX 137
H32A  2   0.019712   0.075497   0.257002    11.00000    -1.50000
H32B  2   0.100653   0.170306   0.238439    11.00000    -1.50000
H32C  2   0.178960   0.100165   0.277703    11.00000    -1.50000
AFIX 0
C33   1  -0.035509  -0.002672   0.126569    11.00000     0.05248     0.15661 =
      0.12403     0.01786     0.00489    -0.00257
AFIX 137
H33A  2  -0.106789  -0.020307   0.148283    11.00000    -1.50000
H33B  2  -0.039903  -0.063689   0.085017    11.00000    -1.50000
H33C  2  -0.046302   0.064204   0.115283    11.00000    -1.50000
AFIX 0
C34   1   1.057577   0.934732   0.405832    11.00000     0.16563     0.08552 =
      0.15064     0.00321    -0.00151     0.03072
AFIX 43
H34   2   1.046026   1.009292   0.417539    11.00000    -1.20000
AFIX 0
C35   1   0.541854  -0.081138   0.394433    11.00000     0.17438     0.07210 =
      0.09828     0.04847     0.00633     0.02353
AFIX 137
H35A  2   0.530417  -0.158521   0.391613    11.00000    -1.50000
H35B  2   0.487043  -0.042653   0.423806    11.00000    -1.50000
H35C  2   0.635657  -0.047208   0.413335    11.00000    -1.50000
AFIX 0
C36   1   0.772816   0.475012   0.249240    11.00000     0.21516     0.08094 =
      0.20837    -0.03372     0.13233    -0.06900
AFIX 137
H36A  2   0.843358   0.517249   0.237416    11.00000    -1.50000
H36B  2   0.804593   0.471165   0.294664    11.00000    -1.50000
H36C  2   0.694520   0.511087   0.248664    11.00000    -1.50000
AFIX 0
C37   1   0.639284  -0.259321   0.047136    11.00000     0.14813     0.11831 =
      0.10551     0.00121     0.05242     0.04482
AFIX 137
H37A  2   0.665331  -0.330370   0.027083    11.00000    -1.50000
H37B  2   0.712392  -0.199954   0.053372    11.00000    -1.50000
H37C  2   0.560091  -0.251979   0.016913    11.00000    -1.50000
AFIX 0
C38   1   0.677045   0.370418   0.127167    11.00000     0.11704     0.13125 =
      0.13492     0.07453     0.02735    -0.01112
AFIX 137
H38A  2   0.745494   0.412193   0.113779    11.00000    -1.50000
H38B  2   0.600498   0.408416   0.130032    11.00000    -1.50000
H38C  2   0.648568   0.296809   0.093369    11.00000    -1.50000
AFIX 0
C39   1   1.148142   0.901711   0.447801    11.00000     0.18669     0.13498 =
      0.09794     0.01562    -0.03067    -0.01026
AFIX 43
H39   2   1.199187   0.954010   0.489006    11.00000    -1.20000
AFIX 0
C40   1   1.003328   0.751487   0.331094    11.00000     0.15411     0.09257 =
      0.15726     0.00207    -0.01695     0.01664
AFIX 43
H40   2   0.951431   0.699901   0.289843    11.00000    -1.20000
AFIX 0
C41   1   0.483469  -0.346031   0.103897    11.00000     0.17129     0.04932 =
      0.24490     0.04075     0.09265     0.02700
AFIX 137
H41A  2   0.506581  -0.418775   0.085289    11.00000    -1.50000
H41B  2   0.407255  -0.337390   0.072371    11.00000    -1.50000
H41C  2   0.460318  -0.338721   0.147635    11.00000    -1.50000
AFIX 0
C42   1   0.985175   0.859538   0.347643    11.00000     0.17342     0.10837 =
      0.15896     0.00595    -0.02003     0.04684
AFIX 43
H42   2   0.921733   0.880903   0.318064    11.00000    -1.20000
AFIX 0
C43   1   1.166726   0.791353   0.430777    11.00000     0.15527     0.23911 =
      0.16190     0.13576     0.02946     0.07390
AFIX 43
H43   2   1.230031   0.769383   0.460083    11.00000    -1.20000
AFIX 0
C44   1   0.722379  -0.264468   0.165318    11.00000     0.19086     0.10202 =
      0.14012     0.02726    -0.00204     0.08540
AFIX 137
H44A  2   0.749007  -0.335970   0.147341    11.00000    -1.50000
H44B  2   0.694187  -0.259355   0.207663    11.00000    -1.50000
H44C  2   0.797955  -0.205752   0.174121    11.00000    -1.50000
AFIX 0
HKLF 4
END
