TITL CrystalPilot n0016 in I 41/a m d :2
REM CrystalPilot node n0016 tool=solvent_mask
CELL 1.54178 15.85170 15.85170 57.50380 90.0000 90.0000 90.0000
ZERR 4 0.00010 0.00010 0.00130 0.0000 0.0000 0.0000
LATT 2
SYMM -Y+1/4,X+3/4,Z+1/4
SYMM Y+1/4,-X+1/4,Z+3/4
SYMM X,-Y,-Z
SYMM -X,Y+1/2,-Z
SYMM -X,-Y+1/2,Z
SYMM Y+1/4,X+3/4,-Z+1/4
SYMM -Y+1/4,-X+1/4,-Z+3/4
SFAC C H O Zr
UNIT 272.0 144.0 112.0 24.0

WGHT 0.142330 13.550750
FVAR 0.12871
FE01  4   0.000000   0.250000   0.331563    10.25000     0.05443     0.03147 =
      0.03578     0.00000     0.00000     0.00000
ZR02  4   0.110248   0.360248   0.375000    10.50000     0.06232     0.06232 =
      0.04247    -0.00305     0.00305    -0.02906
O004  3   0.126322   0.250000   0.350620    10.50000     0.04732     0.07498 =
      0.05058     0.00000     0.01207     0.00000
O005  3   0.089332   0.335492   0.437102    11.00000     0.06072     0.10306 =
      0.06798    -0.02173    -0.01672    -0.01398
O006  3   0.161237   0.404809   0.408065    11.00000     0.10512     0.14494 =
      0.05953    -0.01130    -0.01145    -0.06172
O007  3   0.075193   0.500888   0.374485    10.50000     0.35286     0.06895 =
      0.06992    -0.00913     0.03726    -0.09794
C008  1   0.217682   0.386737   0.468497    11.00000     0.05817     0.11990 =
      0.06664    -0.02233    -0.00627    -0.00567
AFIX 43
H008  2   0.176754   0.349907   0.474082    11.00000    -1.20000
AFIX 0
C009  1   0.213997   0.415272   0.445992    11.00000     0.06212     0.10449 =
      0.06894    -0.02578    -0.00363    -0.01353
C00A  1   0.148622   0.383811   0.429137    11.00000     0.06400     0.10384 =
      0.06512    -0.01324    -0.00594    -0.01855
C00B  1   0.500000   0.472058   0.477715    10.50000     0.05039     0.14466 =
      0.08194    -0.05317     0.00000     0.00000
AFIX 43
H00B  2   0.500000   0.450705   0.462651    10.50000    -1.20000
AFIX 0
C00D  1   0.345028   0.468441   0.474563    11.00000     0.05104     0.12902 =
      0.07613    -0.04683    -0.00546    -0.00120
C00E  1   0.422337   0.487408   0.488544    11.00000     0.05220     0.12960 =
      0.07148    -0.04393    -0.00167    -0.00648
C00F  1   0.272612   0.473471   0.437592    11.00000     0.07889     0.13874 =
      0.07994    -0.01473    -0.00921    -0.04138
AFIX 43
H00F  2   0.267851   0.495504   0.422661    11.00000    -1.20000
AFIX 0
O5X   3   0.000000   0.156469   0.356617    10.50000     0.06035     0.03241 =
      0.04089     0.00296     0.00000     0.00000
C8X   1   0.163019   0.032500   0.732801    11.00000     0.13437     0.06220 =
      0.06960    -0.00278    -0.02993    -0.00131
AFIX 43
H8X   2   0.143845   0.034854   0.748072    11.00000    -1.20000
AFIX 0
C9X   1   0.161415   0.002298   0.047780    11.00000     0.07398     0.13272 =
      0.08510    -0.01295    -0.01205    -0.02824
AFIX 43
H9X   2   0.120687  -0.034759   0.053362    11.00000    -1.20000
AFIX 0
HKLF 4
END
