TITL CrystalPilot n0050 in C 2 2 21
REM CrystalPilot node n0050 tool=refine
REM R1 = 0.0547 wR2 = 0.1689 GooF = 1.503
CELL 0.68914 15.79000 32.31000 11.86000 90.0000 90.0000 90.0000
ZERR 8 0 0 0 0 0 0
LATT -7
SYMM X,-Y,-Z
SYMM -X,Y,-Z+1/2
SYMM -X,-Y,Z+1/2
SFAC C O Cu
UNIT 210.8 40.0 8.0

WGHT 0.100000 0.000000
FVAR 0.27898
CU1   3   0.069033   0.019832   0.363624    11.00000     0.03956     0.02043 =
      0.08335     0.00072    -0.01852    -0.00169
C1    1   0.071443   0.294477   0.210746    11.00000     0.03300     0.01747 =
      0.04858    -0.00416     0.01101    -0.00049
C2    1   0.000000   0.272283   0.250000    10.50000     0.03366     0.01340 =
      0.05103     0.00000     0.00642    -0.00000
C3    1   0.000000   0.405831   0.250000    10.50000     0.08373     0.00875 =
      0.04841     0.00000     0.00301    -0.00000
O1    2   0.159198   0.046582   0.449274    11.00000     0.04851     0.04871 =
      0.07655     0.00273    -0.02399    -0.02181
C4    1   0.000000   0.360068   0.250000    10.50000     0.04754     0.01620 =
      0.04941     0.00000     0.00920    -0.00000
C5    1   0.072009   0.337830   0.211609    11.00000     0.03857     0.02225 =
      0.04571    -0.00257     0.00622    -0.00523
O2    2   0.031801   0.076316   0.336110    11.00000     0.08481     0.02186 =
      0.09207     0.00233    -0.02986     0.00369
C6    1   0.000000   0.140468   0.250000    10.50000     0.05826     0.01706 =
      0.05497     0.00000    -0.01471    -0.00000
O3    2   0.000000  -0.001998   0.250000    10.50000     0.09863     0.02307 =
      0.15528     0.00000    -0.07872    -0.00000
C7    1   0.218027   0.218503   0.063603    11.00000     0.11800     0.11202 =
      0.04377     0.00265     0.01528     0.08223
O4    2   0.122961   0.033655   0.628747    11.00000     0.05683     0.03581 =
      0.08898    -0.01156     0.03057    -0.02279
C8    1   0.148649   0.271219   0.175685    11.00000     0.04242     0.03006 =
      0.04753    -0.00696     0.01495     0.00137
C9    1   0.000000   0.226648   0.250000    10.50000     0.03908     0.01799 =
      0.05045     0.00000     0.00277    -0.00000
C10   1   0.229496   0.083064   0.592510    11.00000     0.04000     0.03266 =
      0.05633    -0.00072     0.00096    -0.01236
C11   1   0.144919   0.362699   0.168216    11.00000     0.04551     0.03462 =
      0.04966    -0.00126     0.00276    -0.01906
C12   1   0.168734   0.362182   0.055112    11.00000     0.04065     0.04329 =
      0.04947    -0.00164     0.00697    -0.01542
C13   2   0.121815   0.333680   0.724609    11.00000     0.16093     0.20071 =
      0.06371    -0.01672    -0.01089     0.12497
C14   1   0.145873   0.243086   0.085472    11.00000     0.09647     0.04828 =
      0.04095    -0.00441     0.01422     0.03004
C15   1   0.206450   0.249645   0.719772    11.00000     0.05504     0.10556 =
      0.06747    -0.01212    -0.01249     0.03012
C16   1   0.230235   0.389791   0.017418    11.00000     0.04642     0.03106 =
      0.06013    -0.00321     0.01585    -0.01092
C17   1   0.054315   0.161820   0.321654    11.00000     0.05870     0.02655 =
      0.06807    -0.00291    -0.02209     0.00211
C18   1   0.055223   0.204435   0.319365    11.00000     0.04463     0.02308 =
      0.06130    -0.00069    -0.01406     0.00228
C19   1   0.222038   0.274564   0.237011    11.00000     0.03655     0.07409 =
      0.07447    -0.00779     0.00624     0.01363
C20   1   0.002701   0.427583   0.150427    11.00000     0.16734     0.02135 =
      0.04477     0.00288     0.01504     0.00130
O5    2   0.030190   0.000000   0.000000    10.50000     0.03691     0.12384 =
      0.15554    -0.02686    -0.00000    -0.00000
C21   1   0.210372   0.278832   0.630486    11.00000     0.10523     0.13219 =
      0.05087    -0.00782    -0.02333     0.08820
C22   1   0.187861   0.388393   0.243999    11.00000     0.07817     0.05059 =
      0.04619    -0.00404    -0.00714    -0.03009
C23   1   0.000000   0.492450   0.250000    10.50000     0.53839     0.02210 =
      0.05421     0.00000     0.06507    -0.00000
C24   1   0.000000   0.092421   0.250000    10.50000     0.06110     0.02193 =
      0.07327     0.00000    -0.02121    -0.00000
C25   1   0.250867   0.084420   0.707863    11.00000     0.06623     0.04639 =
      0.05643     0.00186     0.00587    -0.03021
C26   1   0.005836   0.470145   0.150192    11.00000     0.38491     0.02387 =
      0.04894     0.00605     0.04008     0.00847
C27   1   0.108972   0.317498   0.514879    11.00000     0.09470     0.13654 =
      0.17180     0.02088    -0.02276     0.04653
C29X  1   0.164836   0.052616   0.553956    11.00000     0.03858     0.02548 =
      0.07526     0.00052     0.00755    -0.00898
C30X  1   0.129456   0.306246   0.616305    11.00000     0.14090     0.19922 =
      0.04831    -0.03876    -0.03598     0.13247
C32X  1   0.050338   0.281292   0.598708    11.00000     0.10562     0.27768 =
      0.12758    -0.12378    -0.07558     0.12889
C34X  1   0.176579   0.352576   0.526329    10.85000     0.18872     0.16952 =
      0.07411     0.05232     0.04017     0.13897
HKLF 4
END
