TITL CrystalPilot n0020 in C 2 2 21
REM CrystalPilot node n0020 tool=refine
REM R1 = 0.0547 wR2 = 0.1705 GooF = 1.518
CELL 0.68914 15.79000 32.31000 11.86000 90.0000 90.0000 90.0000
ZERR 8 0 0 0 0 0 0
LATT -7
SYMM X,-Y,-Z
SYMM -X,Y,-Z+1/2
SYMM -X,-Y,Z+1/2
SFAC C O Cu
UNIT 218.0 32.0 8.0

WGHT 0.100000 0.000000
FVAR 0.28060
CU1   3   0.069032   0.019831   0.363621    11.00000     0.03971     0.02064 =
      0.08305     0.00083    -0.01852    -0.00174
C1    1   0.071557   0.294449   0.210770    11.00000     0.03295     0.01759 =
      0.04908    -0.00437     0.01072    -0.00149
C2    1   0.000000   0.272136   0.250000    10.50000     0.03289     0.01498 =
      0.04977     0.00000     0.00560    -0.00000
C3    1   0.000000   0.405780   0.250000    10.50000     0.08383     0.00938 =
      0.04787     0.00000     0.00429    -0.00000
O1    2   0.159178   0.046579   0.449429    11.00000     0.04889     0.04737 =
      0.07778     0.00304    -0.02288    -0.02144
C4    1   0.000000   0.360047   0.250000    10.50000     0.04706     0.01639 =
      0.04779     0.00000     0.00893    -0.00000
C5    1   0.071817   0.337785   0.211332    11.00000     0.03854     0.02255 =
      0.04508    -0.00278     0.00622    -0.00472
O2    2   0.031673   0.076339   0.335804    11.00000     0.08466     0.02109 =
      0.09234     0.00199    -0.02933     0.00434
C6    1   0.000000   0.140495   0.250000    10.50000     0.05737     0.01621 =
      0.05947     0.00000    -0.01215    -0.00000
O3    2   0.000000  -0.002084   0.250000    10.50000     0.10220     0.02353 =
      0.15770     0.00000    -0.08038    -0.00000
C7    1   0.217730   0.218390   0.063326    11.00000     0.12082     0.11144 =
      0.04244     0.00203     0.01449     0.08218
O4    2   0.122964   0.033754   0.628708    11.00000     0.05590     0.03660 =
      0.09173    -0.01241     0.03026    -0.02220
C8    1   0.148321   0.271208   0.175507    11.00000     0.04363     0.03003 =
      0.04844    -0.00651     0.01583     0.00113
C9    1   0.000000   0.226626   0.250000    10.50000     0.04007     0.01786 =
      0.05082     0.00000     0.00334    -0.00000
C10   1   0.229543   0.083094   0.592380    11.00000     0.04053     0.03301 =
      0.05716    -0.00102     0.00092    -0.01172
C11   1   0.145008   0.362565   0.168636    11.00000     0.04523     0.03587 =
      0.04920    -0.00176     0.00224    -0.01942
C12   1   0.168652   0.362085   0.055121    11.00000     0.04030     0.04440 =
      0.04870    -0.00167     0.00659    -0.01500
C13   1   0.121999   0.333446   0.724424    11.00000     0.14138     0.15018 =
      0.05962    -0.01347    -0.00797     0.10226
C14   1   0.146265   0.242966   0.085537    11.00000     0.09400     0.04836 =
      0.04225    -0.00390     0.01503     0.02873
C15   1   0.206658   0.249807   0.718870    11.00000     0.05640     0.10262 =
      0.06810    -0.01298    -0.01265     0.03245
C16   1   0.229918   0.389901   0.017173    11.00000     0.04559     0.03291 =
      0.05820    -0.00275     0.01351    -0.01100
C17   1   0.054282   0.161760   0.321610    11.00000     0.06067     0.02527 =
      0.06931    -0.00257    -0.02113     0.00232
C18   1   0.055139   0.204478   0.319370    11.00000     0.04525     0.02344 =
      0.06269    -0.00085    -0.01340     0.00265
C19   1   0.222221   0.274431   0.236973    11.00000     0.03571     0.07459 =
      0.07537    -0.00791     0.00681     0.01275
C20   1   0.003034   0.427545   0.150413    11.00000     0.16179     0.02130 =
      0.04340     0.00226     0.01507    -0.00049
O5    2   0.030519   0.000000   0.000000    10.50000     0.03782     0.12853 =
      0.15320    -0.03409    -0.00000    -0.00000
C21   1   0.210460   0.278932   0.629821    11.00000     0.10174     0.12944 =
      0.05198    -0.00847    -0.02245     0.08382
C22   1   0.188171   0.388211   0.244264    11.00000     0.08034     0.04995 =
      0.04769    -0.00388    -0.00764    -0.03111
C23   1   0.000000   0.492123   0.250000    10.50000     0.63960     0.02047 =
      0.05184     0.00000     0.07632    -0.00000
C24   1   0.000000   0.092581   0.250000    10.50000     0.06253     0.02430 =
      0.07225     0.00000    -0.01966    -0.00000
C25   1   0.251140   0.084281   0.707627    11.00000     0.06571     0.04739 =
      0.05638     0.00160     0.00525    -0.02991
C26   1   0.005377   0.470157   0.149908    11.00000     0.39676     0.02320 =
      0.04832     0.00564     0.04120     0.00671
C27   1   0.109114   0.317564   0.513227    11.00000     0.09864     0.13833 =
      0.18143     0.01065    -0.02254     0.05259
C29X  1   0.164784   0.052570   0.553741    11.00000     0.03943     0.02533 =
      0.07571    -0.00060     0.00681    -0.00811
C30X  1   0.129154   0.306008   0.616470    11.00000     0.13984     0.19803 =
      0.04930    -0.03570    -0.03351     0.13168
C32X  1   0.051555   0.282130   0.597046    11.00000     0.11661     0.31034 =
      0.13509    -0.14071    -0.08708     0.14853
C34X  1   0.174829   0.351685   0.525613    10.75000     0.19689     0.17811 =
      0.07112     0.05383     0.03771     0.15153
HKLF 4
END
