TITL CrystalPilot n0146 in P -1
REM CrystalPilot node n0146 tool=refine
REM R1 = 0.0664 wR2 = 0.2108 GooF = 0.969
CELL 0.71073 10.15540 12.70750 20.80080 107.6910 100.3150 96.2330
ZERR 2 0.00170 0.00210 0.00440 0.0030 0.0030 0.0020
LATT 1
SFAC C H N P Ni La
UNIT 96.0 136.0 8.0 4.0 2.0 2.0

DFIX 1.3900 0.010 C28 C40
DFIX 1.3900 0.010 C40 C42
DFIX 1.3900 0.010 C42 C34
DFIX 1.3900 0.010 C34 C39
DFIX 1.3900 0.010 C39 C43
DFIX 1.3900 0.010 C43 C28
DFIX 1.3900 0.010 C28B C40B
DFIX 1.3900 0.010 C40B C42B
DFIX 1.3900 0.010 C42B C34B
DFIX 1.3900 0.010 C34B C39B
DFIX 1.3900 0.010 C39B C43B
DFIX 1.3900 0.010 C43B C28B
FLAT 0.01 C28 C40 C42 C34 C39 C43
FLAT 0.01 C28B C40B C42B C34B C39B C43B
SADI 0.020 P1 C22 P1 C16 P1 C22B P1 C16B
SADI 0.020 C22 C25 C22 C30 C16 C33 C16 C32 C22B C25B C22B C30B C16B C33B =
 C16B C32B
SIMU 0.010 0.020 P1 C22 C25 C30 C16 C33 C32 C22B C25B C30B C16B C33B C32B
SADI 0.020 C11 C36 C11 C38 C11 C31 C11 C36B C11 C38B C11 C31B
SIMU 0.010 0.020 C11 C36 C38 C31 C36B C38B C31B
SADI 0.020 C27 C44 C27 C37 C27 C41 C27 C44B C27 C37B C27 C41B
SIMU 0.010 0.020 C27 C44 C37 C41 C44B C37B C41B
SIMU 0.010 0.020 C28 C40 C42 C34 C39 C43 C28B C40B C42B C34B C39B C43B

WGHT 0.092580 14.286560
FVAR 0.19078 0.87736 0.78389 0.80647 0.71748
LA1   6   0.429131   0.291511   0.269793    11.00000     0.04332     0.03288 =
      0.04282     0.00571     0.00734     0.00972
NI1   5   0.466913   0.070237   0.207496    11.00000     0.05003     0.03188 =
      0.04660     0.00552     0.01027     0.01113
P1    4   0.260806   0.052351   0.145793    11.00000     0.05186     0.03322 =
      0.04712     0.00267     0.00461     0.00654
P2    4   0.511687   0.071636   0.314979    11.00000     0.06031     0.03579 =
      0.04918     0.00988     0.00947     0.01497
N1    3   0.251844   0.281103   0.169975    11.00000     0.05697     0.03254 =
      0.04745     0.00688     0.00351     0.01085
N2    3   0.383348   0.247085   0.375647    11.00000     0.06424     0.04138 =
      0.04820     0.01031     0.01598     0.01648
N3    3   0.627376   0.295447   0.216852    11.00000     0.04627     0.04366 =
      0.05456     0.01051     0.00978     0.00332
C1    1   0.294854   0.493791   0.270059    11.00000     0.05500     0.03482 =
      0.04928     0.00562     0.00326     0.01298
C45   1   0.117033   0.348934   0.082927    11.00000     0.07547     0.04700 =
      0.04174     0.00922     0.00293     0.01026
AFIX 43
H45   2   0.103978   0.279763   0.048288    11.00000    -1.20000
AFIX 0
C46   1   0.245443   0.449657   0.316168    11.00000     0.05643     0.04191 =
      0.04597     0.00542     0.00533     0.01730
AFIX 43
H46   2   0.155594   0.413424   0.304454    11.00000    -1.20000
AFIX 0
C47   1   0.327960   0.458370   0.380249    11.00000     0.05809     0.03550 =
      0.04227     0.00182     0.00760     0.01466
C2    1   0.195057   0.362989   0.149844    11.00000     0.05424     0.03871 =
      0.04571     0.01348     0.00542     0.00962
C3    1   0.569865  -0.144191   0.142644    11.00000     0.08448     0.03364 =
      0.05579     0.00561     0.02014     0.02605
C48   1   0.211896   0.472420   0.199071    11.00000     0.05181     0.03814 =
      0.04613     0.00914     0.00679     0.00604
C4    1   0.593985   0.187945   0.192769    11.00000     0.05136     0.04656 =
      0.05748     0.01247     0.01248     0.01266
C5    1   0.429190   0.550701   0.289200    11.00000     0.06313     0.03749 =
      0.06541     0.01273     0.00673     0.00527
AFIX 43
H5    2   0.463332   0.581889   0.259193    11.00000    -1.20000
AFIX 0
C6    1   0.274342   0.401995   0.425814    11.00000     0.06301     0.04999 =
      0.04170     0.00488     0.00667     0.01901
C7    1   0.219277   0.170825   0.115538    11.00000     0.07492     0.03886 =
      0.05030     0.00418    -0.00378     0.01404
AFIX 23
H7A   2   0.127279   0.164153   0.089931    11.00000    -1.20000
H7B   2   0.279583   0.172689   0.084478    11.00000    -1.20000
AFIX 0
C8    1   0.154010   0.557846   0.182596    11.00000     0.08191     0.04202 =
      0.06128     0.01490     0.00384     0.01603
AFIX 43
H8    2   0.166323   0.627893   0.216317    11.00000    -1.20000
AFIX 0
N4    3   0.529869  -0.061597   0.166161    11.00000     0.07275     0.05996 =
      0.06753     0.01770     0.01452     0.01379
C9    1   0.193779   0.450759   0.469708    11.00000     0.07292     0.07021 =
      0.05084     0.00519     0.01702     0.02945
AFIX 43
H9    2   0.171809   0.520103   0.470146    11.00000    -1.20000
AFIX 0
C10   1   0.459923   0.515129   0.396981    11.00000     0.06876     0.04461 =
      0.05007     0.00110    -0.00355     0.00927
AFIX 43
H10   2   0.515087   0.522491   0.439475    11.00000    -1.20000
AFIX 0
C11   1   0.735805   0.360456   0.198446    11.00000     0.06754     0.05757 =
      0.09688     0.01684     0.03274    -0.00524
C12   1   0.059752   0.435229   0.067693    11.00000     0.10102     0.06210 =
      0.05190     0.02435    -0.00674     0.01121
AFIX 43
H12   2   0.007817   0.421751   0.023460    11.00000    -1.20000
AFIX 0
C13   1   0.309749   0.295015   0.422039    11.00000     0.06322     0.04554 =
      0.04441     0.00745     0.01263     0.01172
C14   1   0.176305   0.296506   0.511406    11.00000     0.08322     0.08487 =
      0.05710     0.01281     0.02496     0.01205
AFIX 43
H14   2   0.142529   0.260315   0.539297    11.00000    -1.20000
AFIX 0
C15   1   0.690462   0.135345   0.364957    11.00000     0.06617     0.05830 =
      0.06162     0.02136    -0.00230     0.01033
AFIX 13
H15   2   0.706648   0.116580   0.407726    11.00000    -1.20000
AFIX 0
PART 1
C16   1   0.106297   0.017122   0.177717    21.00000     0.04829     0.07778 =
      0.07369     0.01966     0.00462    -0.00036
AFIX 13
H16   2   0.130012  -0.047387   0.190869    21.00000    -1.20000
AFIX 0
PART 0
C17   1   0.513033   0.561325   0.353056    11.00000     0.06718     0.04473 =
      0.06440     0.00794    -0.00292    -0.00329
AFIX 43
H17   2   0.602471   0.598695   0.365510    11.00000    -1.20000
AFIX 0
C18   1   0.715921   0.263953   0.386363    11.00000     0.07489     0.06829 =
      0.07422     0.01648     0.00305     0.00065
AFIX 137
H18A  2   0.810412   0.292476   0.407435    11.00000    -1.50000
H18B  2   0.662068   0.293829   0.418857    11.00000    -1.50000
H18C  2   0.691191   0.285908   0.346172    11.00000    -1.50000
AFIX 0
C19   1   0.416427   0.139390   0.380865    11.00000     0.07999     0.04708 =
      0.04895     0.01561     0.02010     0.02189
AFIX 23
H19A  2   0.463940   0.152534   0.428152    11.00000    -1.20000
H19B  2   0.331661   0.088700   0.372058    11.00000    -1.20000
AFIX 0
C20   1   0.077566   0.539954   0.116069    11.00000     0.11101     0.05366 =
      0.06200     0.02368    -0.00054     0.02823
AFIX 43
H20   2   0.039851   0.597375   0.104903    11.00000    -1.20000
AFIX 0
C21   1   0.258218   0.245686   0.468480    11.00000     0.08320     0.06172 =
      0.05295     0.01723     0.02341     0.01479
AFIX 43
H21   2   0.280570   0.177209   0.469824    11.00000    -1.20000
AFIX 0
PART 1
C22   1   0.218688  -0.057570   0.057584    21.00000     0.07103     0.04660 =
      0.05761    -0.00181    -0.00071     0.00707
AFIX 13
H22   2   0.138041  -0.048818   0.027169    21.00000    -1.20000
AFIX 0
PART 0
C23   1   0.144810   0.399823   0.512969    11.00000     0.07745     0.09345 =
      0.06214     0.01555     0.03059     0.03417
AFIX 43
H23   2   0.091851   0.434647   0.542405    11.00000    -1.20000
AFIX 0
C24   1   0.496170  -0.073176   0.322288    11.00000     0.10308     0.04187 =
      0.07700     0.02211     0.01772     0.02136
AFIX 13
H24   2   0.558188  -0.107615   0.294430    11.00000    -1.20000
AFIX 0
PART 1
C25   1   0.331422  -0.041383   0.018143    21.00000     0.08376     0.06144 =
      0.05928     0.00362     0.00813     0.01542
AFIX 137
H25A  2   0.315915  -0.103343  -0.024168    21.00000    -1.50000
H25B  2   0.418581  -0.037934   0.046465    21.00000    -1.50000
H25C  2   0.329429   0.027132   0.007761    21.00000    -1.50000
AFIX 0
PART 0
C26   1   0.359720  -0.142242   0.283965    11.00000     0.10759     0.05236 =
      0.10380     0.02523     0.01642    -0.00657
AFIX 137
H26A  2   0.357576  -0.217230   0.285340    11.00000    -1.50000
H26B  2   0.343392  -0.144057   0.236701    11.00000    -1.50000
H26C  2   0.290689  -0.109729   0.305280    11.00000    -1.50000
AFIX 0
C27   1   0.606772  -0.253680   0.114300    11.00000     0.11075     0.04826 =
      0.09334     0.00779     0.03082     0.03812
PART 1
C28   1   1.094557   0.715564   0.372676    51.00000     0.13264     0.08496 =
      0.10560     0.01471     0.00189     0.03481
AFIX 43
H28   2   1.108228   0.641591   0.362104    51.00000    -1.20000
AFIX 0
PART 0
C29   1   0.791936   0.087139   0.322838    11.00000     0.06166     0.10742 =
      0.11342     0.02974     0.00874     0.03518
AFIX 137
H29A  2   0.882382   0.125317   0.347028    11.00000    -1.50000
H29B  2   0.771572   0.097249   0.278441    11.00000    -1.50000
H29C  2   0.785549   0.008591   0.316606    11.00000    -1.50000
AFIX 0
PART 1
C30   1   0.195066  -0.176309   0.063432    21.00000     0.08878     0.05086 =
      0.07614     0.00085     0.00454     0.00831
AFIX 137
H30A  2   0.190580  -0.231325   0.019299    21.00000    -1.50000
H30B  2   0.111217  -0.188183   0.077498    21.00000    -1.50000
H30C  2   0.268738  -0.183114   0.097128    21.00000    -1.50000
AFIX 0
C31   1   0.862053   0.307092   0.195845    31.00000     0.06251     0.09349 =
      0.12541     0.03579     0.03910     0.00761
AFIX 137
H31A  2   0.928919   0.352456   0.183725    31.00000    -1.50000
H31B  2   0.839065   0.233512   0.161777    31.00000    -1.50000
H31C  2   0.898127   0.301515   0.240386    31.00000    -1.50000
AFIX 0
C32   1   0.101076   0.101743   0.244751    21.00000     0.06131     0.09143 =
      0.08164     0.02315     0.01343     0.00821
AFIX 137
H32A  2   0.028032   0.074560   0.262333    21.00000    -1.50000
H32B  2   0.086328   0.171000   0.237458    21.00000    -1.50000
H32C  2   0.185510   0.114059   0.277546    21.00000    -1.50000
AFIX 0
C33   1  -0.033674  -0.001099   0.127438    21.00000     0.05692     0.10272 =
      0.09543     0.02789     0.00930     0.00258
AFIX 137
H33A  2  -0.105110  -0.016870   0.149536    21.00000    -1.50000
H33B  2  -0.039276  -0.063102   0.086210    21.00000    -1.50000
H33C  2  -0.043067   0.065425   0.115519    21.00000    -1.50000
AFIX 0
C34   1   1.055350   0.937010   0.405062    51.00000     0.13300     0.08458 =
      0.10644     0.01058    -0.00544     0.03379
AFIX 43
H34   2   1.041773   1.011001   0.415561    51.00000    -1.20000
AFIX 0
PART 0
C35   1   0.538737  -0.080988   0.393974    11.00000     0.17744     0.07310 =
      0.09728     0.05019     0.01072     0.02723
AFIX 137
H35A  2   0.526534  -0.158347   0.391202    11.00000    -1.50000
H35B  2   0.484027  -0.042041   0.423225    11.00000    -1.50000
H35C  2   0.632660  -0.047533   0.412985    11.00000    -1.50000
AFIX 0
PART 1
C36   1   0.766491   0.480454   0.247477    31.00000     0.10192     0.06909 =
      0.11334     0.02185     0.04165    -0.00472
AFIX 137
H36A  2   0.836867   0.522775   0.235598    31.00000    -1.50000
H36B  2   0.796084   0.481154   0.294124    31.00000    -1.50000
H36C  2   0.685946   0.513389   0.243745    31.00000    -1.50000
AFIX 0
C37   1   0.647498  -0.257884   0.048222    41.00000     0.11286     0.07858 =
      0.10173     0.01525     0.03394     0.03108
AFIX 137
H37A  2   0.672545  -0.329352   0.028141    41.00000    -1.50000
H37B  2   0.723503  -0.199356   0.057408    41.00000    -1.50000
H37C  2   0.572647  -0.247650   0.016608    41.00000    -1.50000
AFIX 0
C38   1   0.678165   0.368636   0.126462    31.00000     0.09387     0.07994 =
      0.10074     0.03180     0.03674    -0.00127
AFIX 137
H38A  2   0.746733   0.410574   0.113240    31.00000    -1.50000
H38B  2   0.600841   0.405802   0.128398    31.00000    -1.50000
H38C  2   0.651124   0.294614   0.093042    31.00000    -1.50000
AFIX 0
C39   1   1.143842   0.905372   0.451568    51.00000     0.13639     0.09086 =
      0.10457     0.01519    -0.00294     0.03562
AFIX 43
H39   2   1.190725   0.957645   0.493734    51.00000    -1.20000
AFIX 0
C40   1   1.007010   0.748097   0.326979    51.00000     0.13283     0.08916 =
      0.11115     0.01464     0.00040     0.03597
AFIX 43
H40   2   0.960414   0.695665   0.284811    51.00000    -1.20000
AFIX 0
C41   1   0.483844  -0.345578   0.099489    41.00000     0.13060     0.05735 =
      0.11406     0.01474     0.03744     0.03247
AFIX 137
H41A  2   0.508371  -0.417736   0.080798    41.00000    -1.50000
H41B  2   0.410805  -0.335803   0.066680    41.00000    -1.50000
H41C  2   0.455277  -0.340815   0.141703    41.00000    -1.50000
AFIX 0
C42   1   0.987622   0.857974   0.343131    51.00000     0.13615     0.08843 =
      0.10768     0.01215    -0.00178     0.03596
AFIX 43
H42   2   0.927899   0.878897   0.311690    51.00000    -1.20000
AFIX 0
C43   1   1.161417   0.795152   0.434417    51.00000     0.13628     0.09193 =
      0.10645     0.01858     0.00143     0.03670
AFIX 43
H43   2   1.220760   0.773851   0.465815    51.00000    -1.20000
AFIX 0
C44   1   0.716228  -0.265329   0.169218    41.00000     0.13304     0.07662 =
      0.10765     0.02639     0.03508     0.04988
AFIX 137
H44A  2   0.743935  -0.336760   0.152719    41.00000    -1.50000
H44B  2   0.682153  -0.260188   0.210043    41.00000    -1.50000
H44C  2   0.792706  -0.206501   0.180068    41.00000    -1.50000
AFIX 0
PART 2
C22B  1   0.263199  -0.043316   0.057279   -21.00000     0.07257     0.04803 =
      0.05918     0.00019     0.00258     0.00760
AFIX 13
H22B  2   0.211389  -0.016493   0.022778   -21.00000    -1.20000
AFIX 0
C25B  1   0.391255  -0.023556   0.029292   -21.00000     0.07416     0.05205 =
      0.05698    -0.00034     0.00229     0.00868
AFIX 137
H0    2   0.385603  -0.082841  -0.013266   -21.00000    -1.50000
H1    2   0.470506  -0.022538   0.062647   -21.00000    -1.50000
H2    2   0.397305   0.047001   0.021087   -21.00000    -1.50000
AFIX 0
C30B  1   0.217783  -0.165546   0.052621   -21.00000     0.07470     0.04818 =
      0.06322    -0.00111     0.00125     0.00585
AFIX 137
H3    2   0.235356  -0.215493   0.011294   -21.00000    -1.50000
H4    2   0.122280  -0.178256   0.051344   -21.00000    -1.50000
H6    2   0.267403  -0.179084   0.092321   -21.00000    -1.50000
AFIX 0
C16B  1   0.085754   0.000413   0.153110   -21.00000     0.05342     0.07835 =
      0.07655     0.01886     0.00748     0.00280
AFIX 13
H16B  2   0.048945   0.068330   0.152430   -21.00000    -1.20000
AFIX 0
C33B  1  -0.035291  -0.078957   0.097266   -21.00000     0.05645     0.08806 =
      0.08415     0.02310     0.00937     0.00317
AFIX 137
H7    2  -0.108017  -0.094508   0.118644   -21.00000    -1.50000
HA    2  -0.007059  -0.147804   0.074644   -21.00000    -1.50000
HB    2  -0.066041  -0.043897   0.063796   -21.00000    -1.50000
AFIX 0
C32B  1   0.097739  -0.007796   0.226178   -21.00000     0.05146     0.08295 =
      0.07752     0.02066     0.00744     0.00253
AFIX 137
HC    2   0.009585  -0.034326   0.231602   -21.00000    -1.50000
HD    2   0.133434   0.064901   0.260060   -21.00000    -1.50000
HE    2   0.157674  -0.059082   0.232449   -21.00000    -1.50000
AFIX 0
C36B  1   0.819162   0.441576   0.268792   -31.00000     0.08601     0.06314 =
      0.10780     0.01909     0.03656    -0.00825
AFIX 137
HF    2   0.892729   0.487630   0.261586   -31.00000    -1.50000
HG    2   0.854985   0.399366   0.297002   -31.00000    -1.50000
HH    2   0.761746   0.488311   0.291649   -31.00000    -1.50000
AFIX 0
C38B  1   0.673007   0.459354   0.187395   -31.00000     0.09263     0.07354 =
      0.10648     0.02701     0.03883    -0.00205
AFIX 137
HI    2   0.737254   0.506708   0.175084   -31.00000    -1.50000
HJ    2   0.649744   0.501630   0.229322   -31.00000    -1.50000
HK    2   0.592579   0.431842   0.150837   -31.00000    -1.50000
AFIX 0
C31B  1   0.832001   0.288164   0.165571   -31.00000     0.05368     0.07516 =
      0.10639     0.02339     0.03279     0.00063
AFIX 137
HL    2   0.900256   0.334021   0.154613   -31.00000    -1.50000
HM    2   0.781688   0.230527   0.123967   -31.00000    -1.50000
HN    2   0.874713   0.254362   0.197406   -31.00000    -1.50000
AFIX 0
C44B  1   0.752500  -0.257720   0.143474   -41.00000     0.12089     0.06725 =
      0.09958     0.01974     0.03362     0.04651
AFIX 137
HO    2   0.771269  -0.331516   0.123092   -41.00000    -1.50000
HP    2   0.767125  -0.240220   0.192742   -41.00000    -1.50000
HQ    2   0.811861  -0.203994   0.133155   -41.00000    -1.50000
AFIX 0
C37B  1   0.580211  -0.288053   0.036794   -41.00000     0.11479     0.06314 =
      0.10259     0.01227     0.03264     0.03191
AFIX 137
HR    2   0.604896  -0.360315   0.018675   -41.00000    -1.50000
HS    2   0.633291  -0.233964   0.023763   -41.00000    -1.50000
HT    2   0.485459  -0.291862   0.018379   -41.00000    -1.50000
AFIX 0
C41B  1   0.522969  -0.326056   0.142947   -41.00000     0.13082     0.05763 =
      0.10474     0.01548     0.03586     0.04005
AFIX 137
HU    2   0.539870  -0.401526   0.127150   -41.00000    -1.50000
HV    2   0.428299  -0.325376   0.127326   -41.00000    -1.50000
HW    2   0.547341  -0.297381   0.192619   -41.00000    -1.50000
AFIX 0
C28B  1   1.178760   0.746228   0.406591   -51.00000     0.13427     0.08448 =
      0.10301     0.01306     0.00065     0.03387
AFIX 43
H28B  2   1.238253   0.697915   0.413416   -51.00000    -1.20000
AFIX 0
C43B  1   1.207725   0.859788   0.445596   -51.00000     0.13690     0.08828 =
      0.10404     0.01407     0.00040     0.03481
AFIX 43
H43B  2   1.287391   0.890288   0.479572   -51.00000    -1.20000
AFIX 0
C39B  1   1.113341   0.925777   0.431906   -51.00000     0.13684     0.08943 =
      0.10760     0.01471    -0.00082     0.03565
AFIX 43
H39B  2   1.129943   1.001967   0.457091   -51.00000    -1.20000
AFIX 0
C34B  1   0.994642   0.879869   0.381249   -51.00000     0.13656     0.09022 =
      0.10849     0.01490    -0.00050     0.03645
AFIX 43
H34B  2   0.934676   0.927677   0.374096   -51.00000    -1.20000
AFIX 0
C42B  1   0.958996   0.767971   0.340557   -51.00000     0.13586     0.09027 =
      0.10909     0.01520     0.00125     0.03600
AFIX 43
H42B  2   0.879361   0.737187   0.306593   -51.00000    -1.20000
AFIX 0
C40B  1   1.058065   0.708317   0.357365   -51.00000     0.13307     0.08605 =
      0.10531     0.01424     0.00026     0.03457
AFIX 43
H40B  2   1.041088   0.632178   0.332032   -51.00000    -1.20000
AFIX 0
PART 0
HKLF 4
END
