TITL CrystalPilot n0015 in C 2 2 21
REM CrystalPilot node n0015 tool=edit_atoms
CELL 0.68914 15.79000 32.31000 11.86000 90.0000 90.0000 90.0000
ZERR 8 0 0 0 0 0 0
LATT -7
SYMM X,-Y,-Z
SYMM -X,Y,-Z+1/2
SYMM -X,-Y,Z+1/2
SFAC C O Cu
UNIT 216.0 32.0 8.0

WGHT 0.100000 0.000000
FVAR 0.28041
CU1   3   0.069027   0.019832   0.363633    11.00000     0.03965     0.02065 =
      0.08257     0.00088    -0.01838    -0.00176
C1    1   0.071653   0.294393   0.210789    11.00000     0.03256     0.01837 =
      0.04913    -0.00425     0.01024    -0.00198
C2    1   0.000000   0.272062   0.250000    10.50000     0.03225     0.01632 =
      0.04827     0.00000     0.00555     0.00000
C3    1   0.000000   0.405617   0.250000    10.50000     0.08699     0.00985 =
      0.04721     0.00000     0.00293     0.00000
O1    2   0.159211   0.046638   0.449654    11.00000     0.04832     0.04552 =
      0.07792     0.00450    -0.02206    -0.02062
C4    1   0.000000   0.359937   0.250000    10.50000     0.04649     0.01657 =
      0.04650     0.00000     0.00834     0.00000
C5    1   0.071888   0.337723   0.211376    11.00000     0.03877     0.02274 =
      0.04492    -0.00293     0.00616    -0.00471
O2    2   0.031518   0.076396   0.335757    11.00000     0.08292     0.02079 =
      0.09250     0.00104    -0.02787     0.00468
C6    1   0.000000   0.140560   0.250000    10.50000     0.05498     0.01724 =
      0.06372     0.00000    -0.01087     0.00000
O3    2   0.000000  -0.001994   0.250000    10.50000     0.10401     0.02373 =
      0.15883     0.00000    -0.08150     0.00000
C7    1   0.218254   0.218585   0.063277    11.00000     0.11849     0.10820 =
      0.04227     0.00103     0.01435     0.07833
O4    2   0.123070   0.033776   0.628881    11.00000     0.05570     0.03674 =
      0.09406    -0.01279     0.03088    -0.02033
C8    1   0.148212   0.271177   0.175293    11.00000     0.04338     0.03078 =
      0.04996    -0.00616     0.01551     0.00224
C9    1   0.000000   0.226525   0.250000    10.50000     0.04019     0.01847 =
      0.05222     0.00000     0.00291     0.00000
C10   1   0.229414   0.083169   0.592465    11.00000     0.03995     0.03374 =
      0.05794    -0.00143     0.00046    -0.01189
C11   1   0.144821   0.362406   0.169246    11.00000     0.04528     0.03532 =
      0.04888    -0.00172     0.00181    -0.01882
C12   1   0.168491   0.361960   0.055743    11.00000     0.04035     0.04467 =
      0.04899    -0.00401     0.00689    -0.01515
C13   1   0.122252   0.334113   0.724173    11.00000     0.13595     0.14286 =
      0.06044    -0.01177    -0.00728     0.09643
C14   1   0.146199   0.242932   0.085718    11.00000     0.09277     0.04822 =
      0.04299    -0.00325     0.01575     0.02784
C15   1   0.207142   0.250097   0.717443    11.00000     0.05653     0.10291 =
      0.07026    -0.01567    -0.01478     0.03240
C16   1   0.229507   0.390119   0.017132    11.00000     0.04656     0.03364 =
      0.05743    -0.00289     0.01172    -0.01085
C17   1   0.054577   0.161722   0.321207    11.00000     0.05977     0.02530 =
      0.07014    -0.00299    -0.01935     0.00247
C18   1   0.055216   0.204567   0.319172    11.00000     0.04654     0.02425 =
      0.06204    -0.00083    -0.01234     0.00311
C19   1   0.222534   0.274331   0.237203    11.00000     0.03666     0.07560 =
      0.07646    -0.00906     0.00711     0.01203
C20   1   0.003241   0.427610   0.149869    11.00000     0.16030     0.02076 =
      0.04255     0.00265     0.01446    -0.00072
O5    2   0.030945   0.000000   0.000000    10.50000     0.04039     0.12662 =
      0.14629    -0.03602     0.00000     0.00000
C21   1   0.210228   0.278747   0.629865    11.00000     0.09924     0.12811 =
      0.05218    -0.00766    -0.01919     0.08202
C22   1   0.188443   0.388179   0.244317    11.00000     0.08145     0.04983 =
      0.04833    -0.00391    -0.00740    -0.03061
C23   1   0.000000   0.491770   0.250000    10.50000     0.75256     0.01716 =
      0.05102     0.00000     0.08271     0.00000
C24   1   0.000000   0.092793   0.250000    10.50000     0.05956     0.02788 =
      0.07322     0.00000    -0.01705     0.00000
C25   1   0.251198   0.084168   0.707626    11.00000     0.06577     0.04798 =
      0.05795     0.00225     0.00556    -0.02871
C26   1   0.005949   0.470199   0.149957    11.00000     0.42314     0.02220 =
      0.04881     0.00531     0.03646     0.00708
C27   1   0.106198   0.315897   0.512441    11.00000     0.09722     0.12021 =
      0.24671     0.00803    -0.04416     0.03547
C29X  1   0.164731   0.052643   0.553192    11.00000     0.03886     0.02506 =
      0.07707    -0.00158     0.00639    -0.00710
C30X  1   0.129168   0.306125   0.617049    11.00000     0.13853     0.19802 =
      0.05319    -0.03482    -0.03524     0.13124
C32X  1   0.049603   0.280160   0.599757    11.00000     0.10977     0.29981 =
      0.13310    -0.13320    -0.08345     0.13790
C34X  1   0.171558   0.350059   0.525246    10.50000     0.30932     0.26900 =
      0.07416     0.06744     0.05515     0.24896
HKLF 4
END
