TITL CrystalPilot n0011 in C 2 2 21
REM CrystalPilot node n0011 tool=refine
REM R1 = 0.0576 wR2 = 0.177 GooF = 1.578
CELL 0.68914 15.79000 32.31000 11.86000 90.0000 90.0000 90.0000
ZERR 8 0 0 0 0 0 0
LATT -7
SYMM X,-Y,-Z
SYMM -X,Y,-Z+1/2
SYMM -X,-Y,Z+1/2
SFAC C O Cu
UNIT 232.0 32.0 8.0

WGHT 0.100000 0.000000
FVAR 0.28112
CU1   3   0.069001   0.019828   0.363651    11.00000     0.03970     0.02078 =
      0.08231     0.00079    -0.01826    -0.00178
C1    1   0.071499   0.294441   0.210817    11.00000     0.03311     0.01832 =
      0.05017    -0.00484     0.01072    -0.00153
C2    1   0.000000   0.272098   0.250000    10.50000     0.03354     0.01737 =
      0.04833     0.00000     0.00544    -0.00000
C3    1   0.000000   0.405755   0.250000    10.50000     0.08842     0.00965 =
      0.04591     0.00000     0.00389    -0.00000
O1    2   0.159175   0.046512   0.449616    11.00000     0.04959     0.04480 =
      0.07780     0.00544    -0.02230    -0.02156
C4    1   0.000000   0.359947   0.250000    10.50000     0.04623     0.01830 =
      0.04549     0.00000     0.00859    -0.00000
C5    1   0.071661   0.337812   0.211400    11.00000     0.03921     0.02156 =
      0.04600    -0.00168     0.00753    -0.00467
O2    2   0.031554   0.076361   0.335810    11.00000     0.08453     0.01995 =
      0.09407    -0.00034    -0.02847     0.00489
C6    1   0.000000   0.140694   0.250000    10.50000     0.05731     0.01861 =
      0.06150     0.00000    -0.01086    -0.00000
O3    2   0.000000  -0.002089   0.250000    10.50000     0.10847     0.02249 =
      0.16827     0.00000    -0.08673    -0.00000
C7    1   0.218719   0.218807   0.063670    11.00000     0.11770     0.10843 =
      0.04354     0.00058     0.01313     0.07975
O4    2   0.123151   0.033673   0.629418    11.00000     0.05408     0.03720 =
      0.09559    -0.01337     0.03076    -0.02005
C8    1   0.148129   0.271091   0.175405    11.00000     0.04394     0.02962 =
      0.05160    -0.00686     0.01500     0.00235
C9    1   0.000000   0.226498   0.250000    10.50000     0.03960     0.01901 =
      0.05439     0.00000     0.00186    -0.00000
C10   1   0.229764   0.083115   0.592585    11.00000     0.04189     0.03308 =
      0.05797    -0.00107     0.00146    -0.01254
C11   1   0.145239   0.362310   0.168886    11.00000     0.04519     0.03392 =
      0.04869    -0.00096     0.00170    -0.01852
C12   1   0.168759   0.361902   0.055117    11.00000     0.04100     0.04449 =
      0.04992    -0.00595     0.00720    -0.01475
C13   1   0.122540   0.334286   0.724931    11.00000     0.14001     0.13211 =
      0.06110    -0.00903    -0.00753     0.09304
C14   1   0.146159   0.243116   0.085544    11.00000     0.09402     0.04745 =
      0.04429    -0.00543     0.01455     0.02807
C15   1   0.206627   0.249739   0.718182    11.00000     0.05499     0.10621 =
      0.07328    -0.01666    -0.01766     0.03364
C16   1   0.230095   0.390104   0.017135    11.00000     0.04615     0.03459 =
      0.05832    -0.00248     0.01065    -0.01144
C17   1   0.054697   0.161820   0.320832    11.00000     0.05962     0.02511 =
      0.07161    -0.00379    -0.01916     0.00328
C18   1   0.055298   0.204516   0.319290    11.00000     0.04619     0.02432 =
      0.06192    -0.00114    -0.01213     0.00327
C19   1   0.222157   0.274334   0.237483    11.00000     0.03630     0.07419 =
      0.07511    -0.00503     0.00802     0.01308
C20   1   0.003035   0.427589   0.150335    11.00000     0.16024     0.01977 =
      0.04235     0.00293     0.01290     0.00139
O5    2   0.030385   0.000000   0.000000    10.50000     0.04237     0.13425 =
      0.13495    -0.03711    -0.00000    -0.00000
C21   1   0.210241   0.278771   0.629634    11.00000     0.10196     0.13489 =
      0.04923    -0.00907    -0.02077     0.08481
C22   1   0.188482   0.388347   0.244400    11.00000     0.08033     0.05350 =
      0.04793    -0.00322    -0.00721    -0.03081
C23   1   0.000000   0.491969   0.250000    10.50000     0.69694     0.01465 =
      0.05501     0.00000     0.07567    -0.00000
C24   1   0.000000   0.092601   0.250000    10.50000     0.06090     0.02914 =
      0.07135     0.00000    -0.01722    -0.00000
C25   1   0.250836   0.084269   0.708131    11.00000     0.06545     0.04519 =
      0.05785     0.00342     0.00422    -0.02639
C26   1   0.006829   0.470252   0.150373    11.00000     0.41568     0.02341 =
      0.04818     0.00790     0.03740     0.00845
C27   1   0.106804   0.316630   0.514554    11.00000     0.09237     0.13113 =
      0.18378     0.03596    -0.02127     0.03216
C28   1   0.000000   0.461302   0.750000    10.50000     2.43096     0.00826 =
      0.07502     0.00000    -0.18274    -0.00000
C29X  1   0.164801   0.052669   0.553677    11.00000     0.03886     0.02387 =
      0.07908    -0.00213     0.00775    -0.00717
C30X  1   0.129272   0.306134   0.616711    11.00000     0.15381     0.21660 =
      0.05520    -0.03651    -0.03760     0.15061
C31X  1   0.038187   0.440361   0.845682    11.00000     0.36285     0.03020 =
      0.09232    -0.00217    -0.06771     0.02056
C32X  1   0.049442   0.280043   0.598978    11.00000     0.10896     0.29287 =
      0.12899    -0.12783    -0.08327     0.13898
C34X  1   0.173559   0.351222   0.526238    11.00000     0.29700     0.24973 =
      0.07886     0.06342     0.05235     0.22990
HKLF 4
END
