TITL import model_hklf5_setting in P -1
REM CrystalPilot import_cif_model from model_hklf5_setting.cif
CELL 0.71073 10.15540 12.70750 20.80783 104.7106 104.0490 96.2330
ZERR 2 0.00000 0.00000 0.00000 0.0000 0.0000 0.0000
LATT 1
SFAC C H N P Ni La
UNIT 88.0 110.0 16.0 4.0 2.0 2.0

WGHT 0.100000 0.000000
FVAR 1.00000
La1   6  -0.159320  -0.021710   0.269800    11.00000     0.04532     0.04333 =
      0.04270     0.02105     0.01403     0.01532
Ni1   5  -0.259350   0.137240   0.207460    11.00000     0.04951     0.04407 =
      0.04650     0.02373     0.01289     0.01625
P1    4  -0.115080   0.093420   0.145630    11.00000     0.05681     0.04834 =
      0.04740     0.02652     0.01836     0.01670
P2    4  -0.196770   0.243360   0.314930    11.00000     0.06178     0.04356 =
      0.04930     0.02132     0.01557     0.01934
N1    3  -0.082050  -0.110720   0.170060    11.00000     0.06136     0.04138 =
      0.04760     0.02036     0.02023     0.01911
N2    3  -0.007350   0.128880   0.375150    11.00000     0.05945     0.04941 =
      0.04950     0.02195     0.00779     0.01652
N3    3  -0.410530  -0.079660   0.217580    11.00000     0.05004     0.05473 =
      0.05770     0.02688     0.02067     0.01190
C1    1  -0.025440  -0.224280   0.270010    11.00000     0.06918     0.04474 =
      0.05130     0.02379     0.02278     0.02276
N4    3  -0.033770  -0.266310   0.082860    11.00000     0.09808     0.06373 =
      0.05360     0.01874     0.02433     0.01828
N5    3   0.070210  -0.132780   0.315780    11.00000     0.06858     0.06889 =
      0.05680     0.02551     0.02268     0.02473
N6    3   0.051230  -0.077370   0.379950    11.00000     0.07641     0.06398 =
      0.05140     0.02984     0.01919     0.02990
C2    1  -0.044310  -0.213390   0.149760    11.00000     0.05513     0.03991 =
      0.04830     0.01563     0.01537     0.01407
C3    1  -0.428700   0.285870   0.142530    11.00000     0.07824     0.05114 =
      0.06090     0.03183     0.00908     0.03178
N7    3  -0.012900  -0.273380   0.199020    11.00000     0.06584     0.05702 =
      0.05860     0.02522     0.02427     0.01464
C4    1  -0.400570   0.005130   0.192390    11.00000     0.04974     0.05860 =
      0.05660     0.02609     0.01362     0.01443
C5    1  -0.142600  -0.263270   0.288390    11.00000     0.07437     0.04708 =
      0.06390     0.02640     0.02792     0.01525
C6    1   0.150790   0.023290   0.425490    11.00000     0.06453     0.06463 =
      0.04070     0.02233     0.01500     0.02628
C7    1  -0.104580  -0.056100   0.115390    11.00000     0.08969     0.05710 =
      0.05090     0.02780     0.03085     0.03245
C8    1   0.031040  -0.375320   0.183970    11.00000     0.09037     0.04727 =
      0.06290     0.02304     0.02564     0.02214
N8    3  -0.365740   0.226770   0.165320    11.00000     0.07600     0.06588 =
      0.06100     0.02155     0.01790     0.01684
C9    1   0.275620   0.017370   0.469710    11.00000     0.07107     0.08531 =
      0.05030     0.02469     0.00682     0.03380
C10   1  -0.065340  -0.117200   0.397110    11.00000     0.07925     0.06101 =
      0.05440     0.03029     0.02847     0.02582
C11   1  -0.536080  -0.161890   0.197390    11.00000     0.04745     0.06682 =
      0.08280     0.03823     0.01298     0.00370
C12   1   0.008290  -0.367700   0.067940    11.00000     0.11091     0.05287 =
      0.05010     0.00824     0.03005     0.01470
C13   1   0.112660   0.126810   0.421640    11.00000     0.05951     0.05637 =
      0.04400     0.02095     0.00927     0.01218
C14   1   0.336540   0.213990   0.512010    11.00000     0.07648     0.09348 =
      0.05980     0.02820     0.00735     0.00546
C15   1  -0.325940   0.229940   0.364510    11.00000     0.07805     0.06192 =
      0.06050     0.01880     0.03045     0.02197
C16   1   0.069870   0.160370   0.175690    11.00000     0.05510     0.08613 =
      0.08960     0.02951     0.03313     0.00591
C17   1  -0.160850  -0.208340   0.352930    11.00000     0.07588     0.06315 =
      0.06460     0.03232     0.03211     0.01064
C18   1  -0.329350   0.122100   0.385900    11.00000     0.08517     0.08085 =
      0.08050     0.03304     0.04324     0.02415
C19   1  -0.035870   0.241790   0.380910    11.00000     0.06930     0.04661 =
      0.05120     0.01623     0.00963     0.01596
C20   1   0.040710  -0.423730   0.116330    11.00000     0.12295     0.04839 =
      0.06130     0.01555     0.03075     0.03825
C21   1   0.210950   0.223870   0.468130    11.00000     0.07027     0.06059 =
      0.05260     0.01305     0.00167     0.00685
C22   1  -0.165500   0.112450   0.056520    11.00000     0.10773     0.07724 =
      0.05760     0.03909     0.03736     0.04008
C23   1   0.369800   0.115180   0.513570    11.00000     0.05774     0.10047 =
      0.06490     0.02642     0.00183     0.02408
C24   1  -0.175520   0.394620   0.321490    11.00000     0.11006     0.04542 =
      0.07950     0.02552     0.02885     0.02487
C25   1  -0.314950   0.060360   0.019120    11.00000     0.09560     0.09239 =
      0.06050     0.03066     0.00957     0.02574
C26   1  -0.072590   0.426610   0.281870    11.00000     0.11950     0.06171 =
      0.09680     0.03746     0.03448     0.00040
C27   1  -0.490780   0.367750   0.114190    11.00000     0.08704     0.06287 =
      0.08340     0.03962     0.01210     0.03910
C28   1  -0.712080  -0.344490   0.366710    11.00000     0.11015     0.10099 =
      0.12930     0.05709     0.03089     0.03553
C29   1  -0.470700   0.232320   0.323780    11.00000     0.09138     0.12249 =
      0.12170     0.03510     0.05386     0.05643
C30   1  -0.138240   0.238020   0.062520    11.00000     0.13601     0.10533 =
      0.11150     0.08184     0.06322     0.05410
C31   1  -0.670160  -0.116090   0.186260    11.00000     0.04862     0.13448 =
      0.24590     0.08099     0.03601     0.02460
C32   1   0.138860   0.143210   0.244940    11.00000     0.07581     0.12610 =
      0.08820     0.03391     0.01795     0.02192
C33   1   0.159890   0.124370   0.123530    11.00000     0.07121     0.20230 =
      0.11900     0.05622     0.05231     0.01380
C34   1  -0.647080  -0.529430   0.407200    11.00000     0.24804     0.14048 =
      0.13870     0.08863     0.09212     0.09610
C35   1  -0.145980   0.477450   0.395460    11.00000     0.16928     0.05548 =
      0.10050     0.00795     0.04076     0.01492
C36   1  -0.527350  -0.227640   0.249300    11.00000     0.10358     0.21055 =
      0.20430     0.16719    -0.01154    -0.04140
C37   1  -0.593560   0.301560   0.046620    11.00000     0.15467     0.19103 =
      0.10010     0.07309     0.00571     0.07240
C38   1  -0.543170  -0.245990   0.126140    11.00000     0.12609     0.08950 =
      0.14280     0.01313     0.02949    -0.01640
C39   1  -0.697040  -0.457540   0.448030    11.00000     0.20683     0.17883 =
      0.08620     0.04634     0.06185     0.03909
C40   1  -0.675880  -0.420440   0.326870    11.00000     0.17438     0.13321 =
      0.14810     0.08173     0.08581     0.05849
C41   1  -0.384030   0.448720   0.101500    11.00000     0.12422     0.11422 =
      0.27980     0.13323     0.06217     0.04735
C42   1  -0.633480  -0.507880   0.347110    11.00000     0.19945     0.15940 =
      0.13220     0.06418     0.07695     0.06870
C43   1  -0.750080  -0.361750   0.424950    11.00000     0.15767     0.12529 =
      0.19520    -0.04502     0.06483     0.01491
C44   1  -0.563330   0.426210   0.167960    11.00000     0.19347     0.10390 =
      0.14430     0.04580     0.06707     0.09132
H8    2   0.053640  -0.410870   0.218020    11.00000     0.07680
H9    2   0.297730  -0.051480   0.470580    11.00000     0.08190
H12   2   0.014760  -0.398920   0.023520    11.00000     0.08550
H14   2   0.397770   0.277860   0.540580    11.00000     0.09410
H18A  2  -0.238400   0.119100   0.411810    11.00000     0.11390
H18B  2  -0.391430   0.120530   0.413990    11.00000     0.11390
H18C  2  -0.360360   0.059620   0.345190    11.00000     0.11390
H20   2   0.068380  -0.491840   0.105020    11.00000     0.08990
H21   2   0.190950   0.293860   0.469080    11.00000     0.07810
H23   2   0.452890   0.110520   0.542770    11.00000     0.09120
H25A  2  -0.328730  -0.016860   0.016180    11.00000     0.12420
H25B  2  -0.373500   0.096280   0.044140    11.00000     0.12420
H25C  2  -0.337340   0.068620  -0.026680    11.00000     0.12420
H26A  2  -0.094500   0.373750   0.236960    11.00000     0.13570
H26B  2  -0.079790   0.498930   0.276770    11.00000     0.13570
H26C  2   0.019870   0.426820   0.307500    11.00000     0.13570
H28   2  -0.714020  -0.276350   0.357980    11.00000     0.12980
H29A  2  -0.470650   0.298920   0.310000    11.00000     0.15690
H29B  2  -0.501020   0.169320   0.283370    11.00000     0.15690
H29C  2  -0.532090   0.230230   0.352170    11.00000     0.15690
H30A  2  -0.042970   0.268800   0.086380    11.00000     0.15030
H30B  2  -0.159400   0.247500   0.017020    11.00000     0.15030
H30C  2  -0.195570   0.275160   0.087840    11.00000     0.15030
H31A  2  -0.747250  -0.175570   0.173160    11.00000     0.20770
H31B  2  -0.670310  -0.063230   0.228390    11.00000     0.20770
H31C  2  -0.677190  -0.080720   0.150220    11.00000     0.20770
H32A  2   0.085080   0.164760   0.276560    11.00000     0.14520
H32B  2   0.145240   0.066580   0.238420    11.00000     0.14520
H32C  2   0.229770   0.187450   0.263510    11.00000     0.14520
H33A  2   0.116840   0.135030   0.079750    11.00000     0.18780
H33B  2   0.250780   0.168640   0.142270    11.00000     0.18780
H33C  2   0.166250   0.047770   0.117180    11.00000     0.18780
H34   2  -0.621920  -0.592200   0.418350    11.00000     0.18570
H35A  2  -0.211540   0.454610   0.417840    11.00000     0.16680
H35B  2  -0.054310   0.478210   0.422310    11.00000     0.16680
H35C  2  -0.153980   0.550310   0.391570    11.00000     0.16680
H36A  2  -0.610180  -0.281770   0.235900    11.00000     0.25190
H36B  2  -0.449280  -0.264210   0.250460    11.00000     0.25190
H36C  2  -0.517050  -0.178530   0.294400    11.00000     0.25190
H37A  2  -0.639280   0.350770   0.024610    11.00000     0.21740
H37B  2  -0.546360   0.260150   0.016930    11.00000     0.21740
H37C  2  -0.660520   0.251590   0.055260    11.00000     0.21740
H38A  2  -0.625260  -0.301210   0.111660    11.00000     0.19170
H38B  2  -0.544990  -0.207200   0.092000    11.00000     0.19170
H38C  2  -0.463600  -0.280930   0.131260    11.00000     0.19170
H39   2  -0.699960  -0.465220   0.490960    11.00000     0.18200
H40   2  -0.678050  -0.416910   0.282530    11.00000     0.16110
H41A  2  -0.428980   0.501450   0.082790    11.00000     0.23270
H41B  2  -0.315570   0.486790   0.144450    11.00000     0.23270
H41C  2  -0.340520   0.408760   0.069310    11.00000     0.23270
H42   2  -0.593300  -0.555600   0.319030    11.00000     0.18130
H43   2  -0.803010  -0.318190   0.447190    11.00000     0.21000
H44A  2  -0.606960   0.481960   0.152180    11.00000     0.20500
H44B  2  -0.631630   0.372610   0.172810    11.00000     0.20500
H44C  2  -0.495960   0.459970   0.211900    11.00000     0.20500
BASF 0.10
HKLF 5
END
