TITL CrystalPilot n0015 in P -1
REM CrystalPilot node n0015 tool=run_shelxl
REM R1 = 0.6168 wR2 = 0.8804 GooF = 9.208
CELL 0.71073 10.15540 12.70750 20.80080 107.6910 100.3150 96.2330
ZERR 2 0.00170 0.00210 0.00440 0.0030 0.0030 0.0020
LATT 1
SFAC C H N P Ni La
UNIT 88.0 38.0 16.0 4.0 2.0 2.0

BASF 0.51684
WGHT 0.100000 0.000000
FVAR 0.28954
LA1   6   0.428982   0.291857   0.270826    11.00000     0.02359     0.02902 =
      0.02420     0.01333     0.00669     0.00861
NI1   5   0.457212   0.049140   0.199807    11.00000     0.18413     0.12353 =
      0.40366    -0.08179     0.08205     0.02751
P1    4   0.298479   0.036606   0.152271    11.00000     0.07748     0.07835 =
      0.09059     0.03914     0.03107     0.02824
P2    4   0.524688   0.134389   0.332358    11.00000     0.01001     0.05562 =
      0.00864     0.02260    -0.00142     0.00177
N1    3   0.266253   0.285036   0.152856    11.00000     0.18839     0.07995 =
      0.10670     0.04425     0.08263     0.12274
N2    3   0.434217   0.278625   0.388418    11.00000     0.00468     1.48793 =
      0.07747     0.34149     0.02089     0.09178
N3    3   0.612950   0.291959   0.227334    11.00000     0.25788     0.10253 =
      0.11413     0.02642    -0.04321     0.14356
C1    1   0.297441   0.499228   0.286991    11.00000     0.00325     0.04576 =
      0.32172     0.09824    -0.03728    -0.01148
N4    3   0.088481   0.429830   0.079426    11.00000     0.28893     0.12129 =
      0.00600     0.02653     0.02938     0.05737
N5    3   0.171102   0.446000   0.335015    11.00000     0.21174     0.00915 =
      0.45460     0.06749    -0.30270    -0.04442
N6    3   0.431296   0.446177   0.401535    11.00000     2.00745     0.08494 =
      0.30300    -0.15296     0.78030    -0.39846
C2    1   0.234687   0.333783   0.134775    11.00000     0.07342     0.01164 =
      0.10264     0.03409     0.06534     0.01530
C3    1   0.539943  -0.148076   0.100441    11.00000     0.16229     0.25220 =
      2.00005    -0.40050    -0.39911     0.20004
N7    3   0.191843   0.465417   0.202374    11.00000     0.11473     0.22823 =
      0.04570     0.06904     0.00793    -0.10815
C4    1   0.533874   0.218095   0.181369    11.00000     0.15438     0.01451 =
      0.03425    -0.00434     0.05808    -0.03660
C5    1   0.371247   0.556668   0.326312    11.00000     0.18404     0.00625 =
      0.39284     0.02150    -0.20757     0.00974
C6    1   0.302023   0.413315   0.444951    11.00000     0.01935     0.07874 =
      0.09406    -0.07170     0.00355     0.00171
C7    1   0.357574   0.215162   0.114862    11.00000     0.47041     0.10546 =
     -0.00091     0.00272     0.00620     0.22385
C8    1   0.227126   0.605404   0.193801    11.00000     0.43233     0.05255 =
      1.18372    -0.07069     0.63755     0.02860
N8    3   0.558737   0.017072   0.197806    11.00000     0.06328     0.26167 =
      0.67312     0.37828     0.20779     0.11885
C9    1   0.188712   0.410797   0.488268    11.00000     0.72088     0.21132 =
      1.17542     0.49868     0.91768     0.38724
C10   1   0.459491   0.552198   0.404913    11.00000     0.21116     0.05184 =
      0.15037     0.06099     0.05120     0.09449
C11   1   0.760476   0.325591   0.168760    11.00000     0.22534     0.38167 =
      0.40182     0.39071    -0.29972    -0.28757
C12   1   0.045377   0.446056   0.099601    11.00000     0.06037     0.02548 =
      0.07194     0.02728     0.04904     0.02907
C13   1   0.260998   0.282838   0.420039    11.00000     0.09192     0.07623 =
      0.01791    -0.03589     0.03537    -0.08350
C14   1   0.179285   0.322781   0.505722    11.00000     0.06650     0.32532 =
      0.06309     0.13495    -0.00793     0.03567
AFIX 23
H14A  2   0.251811   0.308276   0.537432    11.00000    -1.20000
H14B  2   0.127848   0.250858   0.474776    11.00000    -1.20000
AFIX 0
C15   1   0.547833   0.135953   0.339308    11.00000     0.27924     0.02567 =
      0.01185    -0.01543    -0.05339     0.08549
C16   1   0.071557   0.037902   0.154910    11.00000     0.06195     0.00175 =
      0.11167     0.00306     0.08132    -0.00094
C17   1   0.499347   0.545347   0.376553    11.00000     0.00564     0.12051 =
      0.14761    -0.07650    -0.03153     0.01779
C18   1   0.727993   0.249915   0.383575    11.00000     0.89828     0.01338 =
      0.20902    -0.05350    -0.39664     0.08839
C19   1   0.384433   0.175488   0.395255    11.00000     0.02913     0.00011 =
      0.00140     0.00130     0.00828     0.00560
C20   1   0.076725   0.539939   0.129073    11.00000     0.12053     0.19962 =
      0.41964     0.28993     0.21514     0.14651
C21   1   0.179934   0.201227   0.381802    11.00000     0.64572     0.52738 =
      2.02335     1.02405     1.13474     0.56395
AFIX 163
H21   2   0.117640   0.138513   0.352419    11.00000    -1.20000
AFIX 0
C22   1   0.204816  -0.058933   0.081110    11.00000     0.15717     0.04960 =
      0.09938     0.02228     0.12577     0.02966
C23   1   0.111572   0.436987   0.526215    11.00000     0.25997     0.04112 =
      0.02226     0.02787    -0.02872     0.00763
AFIX 23
H23A  2   0.016404   0.437091   0.508747    11.00000    -1.20000
H23B  2   0.140367   0.494509   0.571403    11.00000    -1.20000
AFIX 0
C24   1   0.589457  -0.070728   0.288243    11.00000     0.00888     0.03334 =
      0.30542     0.08964    -0.04662    -0.00904
C25   1   0.316159  -0.057229   0.014463    11.00000     0.56835     0.46126 =
      0.36067     0.38180     0.43306     0.50073
C26   1   0.277887  -0.178384   0.265518    11.00000     2.04120    -0.00017 =
      1.84729    -0.03956     1.94260    -0.04141
C27   1   0.545426  -0.282579   0.107594    11.00000     0.03018     0.02016 =
      0.06425     0.00022     0.01261    -0.00909
C28   1   1.088679   0.801359   0.387891    11.00000     0.05925     0.09611 =
      0.00105     0.00450     0.01075     0.03747
C29   1   0.880896   0.036967   0.268216    11.00000     1.99778     2.03555 =
      0.85307     1.31590    -0.35100    -0.41839
C30   1   0.180162  -0.193253   0.080681    11.00000     0.03617     0.18881 =
      0.04330     0.03512     0.01365    -0.02959
AFIX 137
H30A  2   0.124523  -0.240748   0.036857    11.00000    -1.50000
H30B  2   0.135677  -0.197685   0.117030    11.00000    -1.50000
H30C  2   0.266323  -0.217397   0.087913    11.00000    -1.50000
AFIX 0
C31   1   0.815546   0.286014   0.167790    11.00000     0.39996     1.44898 =
      1.39353     1.42053     0.71725     0.72233
C32   1   0.178755   0.070377   0.288078    11.00000     0.22784     0.02976 =
      0.47462     0.04566     0.28062     0.06769
C33   1  -0.001447   0.001198   0.162271    11.00000     0.00703     0.10958 =
      0.11092    -0.08534    -0.00381     0.02164
C34   1   0.816672   0.831983   0.365445    11.00000     0.36136     0.07377 =
      0.03784     0.01979     0.11803     0.07318
AFIX 137
H34A  2   0.759253   0.850754   0.330069    11.00000    -1.50000
H34B  2   0.824005   0.888031   0.409558    11.00000    -1.50000
H34C  2   0.778121   0.760277   0.366486    11.00000    -1.50000
AFIX 0
C35   1   0.605502  -0.075669   0.377352    11.00000     0.29998     0.00267 =
      0.09203     0.01079     0.07802     0.03263
C36   1   0.735157   0.525015   0.236676    11.00000     0.02626     0.00417 =
      0.00504     0.00493     0.00383     0.00716
C37   1   0.619213  -0.236941   0.055296    11.00000     0.08268     0.22316 =
      0.05437     0.10889     0.06598     0.13669
AFIX 13
H37   2   0.686489  -0.246921   0.026515    11.00000    -1.20000
AFIX 0
C38   1   0.667983   0.415354   0.128892    11.00000     0.02372    -0.00048 =
      0.01820     0.00283     0.02156     0.00341
C39   1   1.112039   1.029904   0.514332    11.00000     0.12051     1.92835 =
      1.02055     1.38891    -0.29703    -0.40000
C40   1   0.939180   0.728375   0.286885    11.00000     0.07695     0.03863 =
      0.05411     0.02058     0.02038    -0.03578
AFIX 137
H40A  2   0.859665   0.730329   0.254706    11.00000    -1.50000
H40B  2   0.925537   0.661558   0.299043    11.00000    -1.50000
H40C  2   1.016134   0.728611   0.265989    11.00000    -1.50000
AFIX 0
C41   1   0.486416  -0.237140   0.081766    11.00000     0.06303     0.70825 =
      0.03300    -0.14109     0.00901     0.04985
C42   1   0.963860   0.826813   0.349207    11.00000     0.00824     0.00676 =
      0.00480     0.00633     0.00684     0.00822
AFIX 13
H42   2   0.989274   0.906602   0.355695    11.00000    -1.20000
AFIX 0
C43   1   1.125582   0.754751   0.465456    11.00000     0.62789     1.08037 =
      0.27797     0.44172     0.23434     0.77701
C44   1   0.627891  -0.321328   0.173043    11.00000     0.02489     0.00203 =
     -0.00096     0.00002     0.00079     0.00868
AFIX 137
H44A  2   0.609777  -0.401544   0.160551    11.00000    -1.50000
H44B  2   0.596611  -0.288256   0.214306    11.00000    -1.50000
H44C  2   0.723886  -0.296082   0.181258    11.00000    -1.50000
AFIX 0
HKLF 5
END
