TITL CrystalPilot n0026 in I 41/a m d :2
REM CrystalPilot node n0026 tool=assemble_asu
CELL 1.54178 15.85170 15.85170 57.50380 90.0000 90.0000 90.0000
ZERR 4 0.00010 0.00010 0.00130 0.0000 0.0000 0.0000
LATT 2
SYMM -Y+1/4,X+3/4,Z+1/4
SYMM Y+1/4,-X+1/4,Z+3/4
SYMM X,-Y,-Z
SYMM -X,Y+1/2,-Z
SYMM -X,-Y+1/2,Z
SYMM Y+1/4,X+3/4,-Z+1/4
SYMM -Y+1/4,-X+1/4,-Z+3/4
SFAC C H O Zr
UNIT 272.0 144.0 128.0 24.0

WGHT 0.142330 13.550750
FVAR 0.12834
FE01  4   0.000000   0.250000   0.331567    10.25000     0.05448     0.03131 =
      0.03545     0.00000     0.00000     0.00000
ZR02  4   0.110241   0.360241   0.375000    10.50000     0.06221     0.06221 =
      0.04242    -0.00293     0.00293    -0.02905
O004  3   0.126267   0.250000   0.350577    10.50000     0.04692     0.07572 =
      0.05043     0.00000     0.01148     0.00000
O005  3   0.089444   0.335402   0.437136    11.00000     0.06132     0.10299 =
      0.06934    -0.02193    -0.01698    -0.01397
O006  3   0.161184   0.404951   0.407946    11.00000     0.10453     0.14735 =
      0.05893    -0.01297    -0.00995    -0.06155
O007  3   0.074616   0.500860   0.375126    10.50000     0.36974     0.07359 =
      0.05400    -0.02207     0.05455    -0.14693
C008  1   0.217736   0.386678   0.468447    11.00000     0.05790     0.12004 =
      0.06783    -0.02250    -0.00717    -0.00328
AFIX 43
H008  2   0.176792   0.349858   0.474028    11.00000    -1.20000
AFIX 0
C009  1   0.214128   0.415193   0.445849    11.00000     0.06063     0.10450 =
      0.06756    -0.02446    -0.00515    -0.01200
C00A  1   0.148675   0.383729   0.429206    11.00000     0.06475     0.10526 =
      0.06432    -0.01479    -0.00445    -0.02079
C00B  1   0.500000   0.472148   0.477639    10.50000     0.05075     0.14540 =
      0.08459    -0.05721     0.00000     0.00000
AFIX 43
H00B  2   0.500000   0.451284   0.462523    10.50000    -1.20000
AFIX 0
C00D  1   0.345068   0.468354   0.474600    11.00000     0.05074     0.12628 =
      0.07455    -0.04498    -0.00396    -0.00250
C00E  1   0.422385   0.487290   0.488609    11.00000     0.05225     0.12604 =
      0.07143    -0.04182    -0.00209    -0.00441
C00F  1   0.272590   0.473337   0.437608    11.00000     0.07828     0.13761 =
      0.07810    -0.01238    -0.00978    -0.03823
AFIX 43
H00F  2   0.267718   0.495534   0.422698    11.00000    -1.20000
AFIX 0
O5X   3   0.000000   0.156555   0.356600    10.50000     0.06061     0.03176 =
      0.04062     0.00250     0.00000     0.00000
C8X   1   0.282458   0.413041   0.482773    11.00000     0.06314     0.13465 =
      0.06852    -0.02764    -0.00367    -0.00059
AFIX 43
H8X   2   0.284653   0.393921   0.498051    11.00000    -1.20000
AFIX 0
C9X   1   0.338547   0.497679   0.452105    11.00000     0.07122     0.13435 =
      0.08665    -0.01534    -0.01224    -0.02657
AFIX 43
H9X   2   0.379249   0.534664   0.446473    11.00000    -1.20000
AFIX 0
O6X   3   0.096505   0.497538   0.373989    10.50000     0.34705     0.05672 =
      0.08624     0.00747     0.06057    -0.00531
HKLF 4
END
