TITL CrystalPilot n0040 in P -1
REM CrystalPilot node n0040 tool=run_shelxl
REM R1 = 0.0686 wR2 = 0.2224 GooF = 1.005
CELL 0.71073 10.15540 12.70750 20.80080 107.6910 100.3150 96.2330
ZERR 2 0.00170 0.00210 0.00440 0.0030 0.0030 0.0020
LATT 1
SFAC C H N P Ni La
UNIT 88.0 110.0 16.0 4.0 2.0 2.0

DFIX 1.3900 0.010 C28 C40
DFIX 1.3900 0.010 C40 C42
DFIX 1.3900 0.010 C42 C34
DFIX 1.3900 0.010 C34 C39
DFIX 1.3900 0.010 C39 C43
DFIX 1.3900 0.010 C43 C28
FLAT 0.01 C28 C40 C42 C34 C39 C43

WGHT 0.103410 10.855884
FVAR 0.18906
LA1   6   0.429121   0.291513   0.269801    11.00000     0.04336     0.03295 =
      0.04287     0.00573     0.00739     0.00966
NI1   5   0.466906   0.070232   0.207499    11.00000     0.04986     0.03165 =
      0.04626     0.00537     0.01026     0.01103
P1    4   0.260781   0.052312   0.145772    11.00000     0.05160     0.03256 =
      0.04672     0.00299     0.00507     0.00679
P2    4   0.511719   0.071651   0.314970    11.00000     0.05991     0.03551 =
      0.04878     0.00982     0.00949     0.01466
N1    3   0.252244   0.280839   0.169693    11.00000     0.05645     0.03291 =
      0.04691     0.00724     0.00353     0.01097
N2    3   0.382902   0.246811   0.375502    11.00000     0.06408     0.04075 =
      0.04799     0.01028     0.01680     0.01567
N3    3   0.627196   0.295777   0.216882    11.00000     0.04637     0.04294 =
      0.05355     0.00950     0.00951     0.00280
C1    1   0.294743   0.493791   0.270012    11.00000     0.05511     0.03439 =
      0.04921     0.00694     0.00446     0.01186
N4    3   0.116912   0.348030   0.082375    11.00000     0.08601     0.06239 =
      0.05229     0.01528     0.00390     0.01262
N5    3   0.244743   0.448836   0.315857    11.00000     0.06917     0.05386 =
      0.05456     0.00769     0.00643     0.02211
N6    3   0.328322   0.458194   0.380197    11.00000     0.06986     0.04597 =
      0.05191     0.00330     0.00864     0.01932
C2    1   0.194739   0.362838   0.149766    11.00000     0.05379     0.03832 =
      0.04585     0.01354     0.00624     0.00997
C3    1   0.569910  -0.143743   0.142639    11.00000     0.08504     0.03434 =
      0.05641     0.00576     0.02094     0.02761
N7    3   0.212262   0.472672   0.199365    11.00000     0.06111     0.04844 =
      0.05683     0.01195     0.00742     0.00752
C4    1   0.593622   0.187171   0.192579    11.00000     0.05113     0.04679 =
      0.05763     0.01325     0.01401     0.01220
C5    1   0.429706   0.551434   0.288945    11.00000     0.06209     0.03882 =
      0.06536     0.01292     0.00605     0.00557
C6    1   0.274394   0.401951   0.425809    11.00000     0.06266     0.04958 =
      0.04211     0.00521     0.00637     0.01870
C7    1   0.219182   0.170840   0.115040    11.00000     0.07514     0.03975 =
      0.05014     0.00456    -0.00408     0.01439
C8    1   0.153794   0.557742   0.182742    11.00000     0.08391     0.04003 =
      0.06242     0.01511     0.00501     0.01583
AFIX 43
H8    2   0.166334   0.627794   0.216484    11.00000    -1.20000
AFIX 0
N8    3   0.529895  -0.061229   0.166207    11.00000     0.07153     0.06028 =
      0.06616     0.01844     0.01373     0.01307
C9    1   0.194269   0.450709   0.469739    11.00000     0.07224     0.07076 =
      0.04982     0.00493     0.01698     0.02862
AFIX 43
H9    2   0.172740   0.520287   0.470457    11.00000    -1.20000
AFIX 0
C10   1   0.460714   0.514855   0.397238    11.00000     0.06602     0.04318 =
      0.05156     0.00154    -0.00278     0.00800
C11   1   0.735857   0.360501   0.198482    11.00000     0.05869     0.04905 =
      0.08447     0.01698     0.03006     0.00192
C12   1   0.059918   0.434654   0.067480    11.00000     0.10206     0.05917 =
      0.05090     0.02310    -0.00713     0.01002
AFIX 43
H12   2   0.008727   0.421512   0.023132    11.00000    -1.20000
AFIX 0
C13   1   0.309878   0.295222   0.421842    11.00000     0.06378     0.04507 =
      0.04445     0.00694     0.01233     0.01129
C14   1   0.176453   0.296722   0.511455    11.00000     0.08531     0.08048 =
      0.05869     0.01290     0.02653     0.01214
AFIX 43
H14   2   0.143024   0.260969   0.539635    11.00000    -1.20000
AFIX 0
C15   1   0.690019   0.134597   0.364950    11.00000     0.06541     0.05775 =
      0.06126     0.02002    -0.00213     0.01151
C16   1   0.105377   0.016554   0.177260    11.00000     0.04587     0.08419 =
      0.08860     0.02755     0.00827    -0.00274
C17   1   0.514341   0.561694   0.353200    11.00000     0.06662     0.04493 =
      0.06325     0.00783    -0.00208    -0.00261
C18   1   0.717345   0.263089   0.386417    11.00000     0.07097     0.06934 =
      0.07416     0.01685     0.00349     0.00458
AFIX 137
H18A  2   0.809718   0.291233   0.411792    11.00000    -1.50000
H18B  2   0.656958   0.293284   0.415073    11.00000    -1.50000
H18C  2   0.702447   0.285104   0.345811    11.00000    -1.50000
AFIX 0
C19   1   0.415921   0.138871   0.381121    11.00000     0.07977     0.04636 =
      0.04933     0.01587     0.01957     0.02157
C20   1   0.076689   0.540378   0.116545    11.00000     0.11435     0.05226 =
      0.06036     0.02232    -0.00021     0.02993
AFIX 43
H20   2   0.037910   0.597587   0.105675    11.00000    -1.20000
AFIX 0
C21   1   0.257999   0.244971   0.468458    11.00000     0.08340     0.06139 =
      0.05276     0.01726     0.02422     0.01509
AFIX 43
H21   2   0.279828   0.176279   0.469648    11.00000    -1.20000
AFIX 0
C22   1   0.220952  -0.056032   0.057394    11.00000     0.08410     0.04893 =
      0.05633    -0.00391    -0.00575     0.01368
C23   1   0.144830   0.399140   0.512873    11.00000     0.07573     0.09589 =
      0.06035     0.01558     0.02887     0.03446
AFIX 43
H23   2   0.091329   0.433635   0.542097    11.00000    -1.20000
AFIX 0
C24   1   0.497677  -0.073232   0.321727    11.00000     0.10587     0.04152 =
      0.07686     0.02420     0.01487     0.01960
C25   1   0.336912  -0.040200   0.019220    11.00000     0.11800     0.07685 =
      0.05913     0.00525     0.01912     0.03281
AFIX 137
H25A  2   0.315727  -0.095978  -0.025963    11.00000    -1.50000
H25B  2   0.421138  -0.048024   0.045342    11.00000    -1.50000
H25C  2   0.345162   0.033135   0.014813    11.00000    -1.50000
AFIX 0
C26   1   0.359153  -0.142348   0.283274    11.00000     0.10927     0.05148 =
      0.10166     0.02395     0.01606    -0.00825
AFIX 137
H26A  2   0.354252  -0.215815   0.287402    11.00000    -1.50000
H26B  2   0.345195  -0.148595   0.235284    11.00000    -1.50000
H26C  2   0.290171  -0.106462   0.302753    11.00000    -1.50000
AFIX 0
C27   1   0.608731  -0.252692   0.114383    11.00000     0.09609     0.04479 =
      0.08466     0.01088     0.03078     0.03840
C28   1   1.092775   0.715101   0.371362    11.00000     0.15294     0.07836 =
      0.12133     0.03399     0.04688     0.03889
AFIX 43
H28   2   1.103439   0.640310   0.358997    11.00000    -1.20000
AFIX 0
C29   1   0.790863   0.087737   0.323210    11.00000     0.06095     0.10971 =
      0.11534     0.03407     0.00862     0.03407
AFIX 137
H29A  2   0.881654   0.120803   0.349520    11.00000    -1.50000
H29B  2   0.776135   0.104828   0.280863    11.00000    -1.50000
H29C  2   0.778720   0.007878   0.312790    11.00000    -1.50000
AFIX 0
C30   1   0.196322  -0.175309   0.062098    11.00000     0.10587     0.04473 =
      0.09483    -0.00871    -0.01140     0.00715
AFIX 137
H30A  2   0.176112  -0.229545   0.016411    11.00000    -1.50000
H30B  2   0.121190  -0.182932   0.083503    11.00000    -1.50000
H30C  2   0.276357  -0.187578   0.089303    11.00000    -1.50000
AFIX 0
C31   1   0.855906   0.303752   0.189964    11.00000     0.07052     0.12584 =
      0.23113     0.07380     0.08488     0.02956
AFIX 137
H31A  2   0.922621   0.349646   0.178100    11.00000    -1.50000
H31B  2   0.827781   0.232449   0.153768    11.00000    -1.50000
H31C  2   0.894520   0.292665   0.232546    11.00000    -1.50000
AFIX 0
C32   1   0.100821   0.097655   0.243247    11.00000     0.07747     0.13360 =
      0.08439     0.02132     0.01977     0.01942
AFIX 137
H32A  2   0.019746   0.075672   0.257039    11.00000    -1.50000
H32B  2   0.100721   0.170441   0.238457    11.00000    -1.50000
H32C  2   0.178994   0.100304   0.277736    11.00000    -1.50000
AFIX 0
C33   1  -0.035588  -0.002575   0.126599    11.00000     0.05231     0.15702 =
      0.12425     0.01795     0.00523    -0.00266
AFIX 137
H33A  2  -0.106821  -0.020194   0.148345    11.00000    -1.50000
H33B  2  -0.040064  -0.063587   0.085032    11.00000    -1.50000
H33C  2  -0.046381   0.064317   0.115332    11.00000    -1.50000
AFIX 0
C34   1   1.057863   0.936344   0.406126    11.00000     0.16553     0.08669 =
      0.15307     0.00331     0.00115     0.03150
AFIX 43
H34   2   1.046783   1.011029   0.418204    11.00000    -1.20000
AFIX 0
C35   1   0.541812  -0.081092   0.394484    11.00000     0.17525     0.07225 =
      0.09846     0.04883     0.00640     0.02381
AFIX 137
H35A  2   0.530350  -0.158458   0.391702    11.00000    -1.50000
H35B  2   0.487040  -0.042549   0.423858    11.00000    -1.50000
H35C  2   0.635627  -0.047181   0.413359    11.00000    -1.50000
AFIX 0
C36   1   0.773223   0.474861   0.249420    11.00000     0.21624     0.08078 =
      0.20887    -0.03403     0.13328    -0.06913
AFIX 137
H36A  2   0.843777   0.517078   0.237592    11.00000    -1.50000
H36B  2   0.805120   0.470760   0.294770    11.00000    -1.50000
H36C  2   0.695073   0.511119   0.249026    11.00000    -1.50000
AFIX 0
C37   1   0.639245  -0.259414   0.047228    11.00000     0.14826     0.11812 =
      0.10641     0.00118     0.05268     0.04529
AFIX 137
H37A  2   0.665253  -0.330494   0.027210    11.00000    -1.50000
H37B  2   0.712399  -0.200089   0.053455    11.00000    -1.50000
H37C  2   0.560094  -0.252068   0.016979    11.00000    -1.50000
AFIX 0
C38   1   0.676977   0.370123   0.127031    11.00000     0.11656     0.13029 =
      0.13294     0.07281     0.02748    -0.01056
AFIX 137
H38A  2   0.745386   0.411880   0.113609    11.00000    -1.50000
H38B  2   0.600341   0.408025   0.129801    11.00000    -1.50000
H38C  2   0.648637   0.296440   0.093308    11.00000    -1.50000
AFIX 0
C39   1   1.149868   0.902273   0.448671    11.00000     0.18738     0.13422 =
      0.09737     0.01628    -0.02844    -0.00865
AFIX 43
H39   2   1.201123   0.954535   0.489837    11.00000    -1.20000
AFIX 0
C40   1   1.001659   0.750657   0.329725    11.00000     0.15327     0.09225 =
      0.15871     0.00296    -0.01493     0.01673
AFIX 43
H40   2   0.950149   0.698599   0.288549    11.00000    -1.20000
AFIX 0
C41   1   0.483647  -0.346107   0.103861    11.00000     0.17239     0.04956 =
      0.24511     0.04107     0.09394     0.02735
AFIX 137
H41A  2   0.506885  -0.418798   0.085239    11.00000    -1.50000
H41B  2   0.407374  -0.337531   0.072341    11.00000    -1.50000
H41C  2   0.460519  -0.338872   0.147596    11.00000    -1.50000
AFIX 0
C42   1   0.982667   0.859975   0.345956    11.00000     0.17581     0.10847 =
      0.15952     0.00390    -0.01967     0.04687
AFIX 43
H42   2   0.919508   0.881565   0.316369    11.00000    -1.20000
AFIX 0
C43   1   1.168311   0.792080   0.431861    11.00000     0.15790     0.22958 =
      0.15879     0.12907     0.03030     0.07343
AFIX 43
H43   2   1.231456   0.770294   0.461346    11.00000    -1.20000
AFIX 0
C44   1   0.722194  -0.264595   0.165475    11.00000     0.19126     0.10182 =
      0.13986     0.02658    -0.00290     0.08536
AFIX 137
H44A  2   0.748843  -0.336093   0.147514    11.00000    -1.50000
H44B  2   0.693721  -0.259561   0.207743    11.00000    -1.50000
H44C  2   0.797841  -0.205876   0.174410    11.00000    -1.50000
AFIX 0
HKLF 4
END
