TITL CrystalPilot n0030 in P 21 21 21
REM CrystalPilot node n0030 tool=edit_atoms
REM R1 = 0.0426 wR2 = 0.1206 GooF = 0.986
CELL 0.68890 5.42807 8.12883 12.05269 90.0000 90.0000 90.0000
ZERR 4 0.00000 0.00000 0.00000 0.0000 0.0000 0.0000
LATT -1
SYMM X+1/2,-Y+1/2,-Z
SYMM -X,Y+1/2,-Z+1/2
SYMM -X+1/2,-Y,Z+1/2
SFAC C H N O S
UNIT 12.0 28.0 4.0 8.0 4.0

DFIX 0.8900 0.020 C4 H1X
DFIX 0.8900 0.020 C4 H2X
DFIX 0.8900 0.020 C4 H7X
DFIX 0.9700 0.020 C6 H3X
DFIX 0.9700 0.020 C6 H4X
DFIX 0.9800 0.020 C5 H5X
DFIX 1.2000 0.030 C1 H6X
SIMU 0.005 0.010 C1 H6X

WGHT 0.068900 0.111710
FVAR 1.16207
C1    5   0.118837   0.413495   0.524115    11.00000     0.02984     0.01861 =
      0.01655     0.00345     0.00001    -0.00389
C2    4  -0.207530   0.716540   0.381180    11.00000     0.01045     0.02143 =
      0.02042     0.00589     0.00000    -0.00237
C3    4  -0.230960   0.508990   0.259970    11.00000     0.01665     0.02635 =
      0.02879     0.01303    -0.00297     0.00107
C4    3   0.284710   0.733450   0.374480    11.00000     0.00868     0.01698 =
      0.01686    -0.00116    -0.00090     0.00085
C5    1   0.166530   0.586845   0.323467    11.00000     0.01095     0.01706 =
      0.01303     0.00016     0.00109     0.00290
C6    1   0.242701   0.429848   0.384240    11.00000     0.01712     0.01655 =
      0.01986     0.00173    -0.00043     0.00387
C7    1  -0.114860   0.605410   0.320920    11.00000     0.01102     0.01662 =
      0.01491     0.00143    -0.00054    -0.00053
H1X   2   0.244750   0.743960   0.448570    11.00000     0.01282
H2X   2   0.439050   0.715720   0.369960    11.00000     0.01870
H3X   2   0.420795   0.420926   0.398772    11.00000     0.03243
H4X   2   0.200990   0.338890   0.339862    11.00000     0.01410
H5X   2   0.222056   0.579391   0.245708    11.00000     0.02846
H6X   2   0.244322   0.502820   0.575099    11.00000     0.04565
H7X   2   0.233110   0.820500   0.337960    11.00000     0.03433
HKLF 4
END
