TITL CrystalPilot n0045 in P -1
REM CrystalPilot node n0045 tool=edit_atoms
CELL 0.71073 10.15540 12.70750 20.80080 107.6910 100.3150 96.2330
ZERR 2 0.00170 0.00210 0.00440 0.0030 0.0030 0.0020
LATT 1
SFAC C H N P Ni La
UNIT 88.0 110.0 16.0 4.0 2.0 2.0

DFIX 1.3900 0.010 C28 C40
DFIX 1.3900 0.010 C40 C42
DFIX 1.3900 0.010 C42 C34
DFIX 1.3900 0.010 C34 C39
DFIX 1.3900 0.010 C39 C43
DFIX 1.3900 0.010 C43 C28
FLAT 0.01 C28 C40 C42 C34 C39 C43

WGHT 0.092400 8.312500
FVAR 0.18892
LA1   6   0.429121   0.291514   0.269801    11.00000     0.04334     0.03292 =
      0.04285     0.00572     0.00738     0.00965
NI1   5   0.466903   0.070232   0.207497    11.00000     0.04983     0.03162 =
      0.04624     0.00536     0.01027     0.01102
P1    4   0.260777   0.052308   0.145771    11.00000     0.05158     0.03253 =
      0.04673     0.00300     0.00507     0.00678
P2    4   0.511712   0.071654   0.314972    11.00000     0.05989     0.03549 =
      0.04876     0.00981     0.00949     0.01465
N1    3   0.252228   0.280820   0.169702    11.00000     0.05647     0.03288 =
      0.04695     0.00732     0.00349     0.01093
N2    3   0.382897   0.246808   0.375502    11.00000     0.06412     0.04061 =
      0.04811     0.01025     0.01678     0.01565
N3    3   0.627171   0.295820   0.216906    11.00000     0.04616     0.04300 =
      0.05360     0.00952     0.00944     0.00275
C1    1   0.294790   0.493770   0.270002    11.00000     0.05530     0.03429 =
      0.04929     0.00698     0.00438     0.01185
N4    3   0.116913   0.348016   0.082375    11.00000     0.08599     0.06234 =
      0.05226     0.01520     0.00391     0.01254
N5    3   0.244745   0.448821   0.315849    11.00000     0.06901     0.05397 =
      0.05452     0.00770     0.00648     0.02201
N6    3   0.328321   0.458199   0.380189    11.00000     0.06996     0.04588 =
      0.05185     0.00326     0.00856     0.01934
C2    1   0.194722   0.362845   0.149778    11.00000     0.05373     0.03829 =
      0.04587     0.01354     0.00636     0.01008
C3    1   0.569902  -0.143756   0.142629    11.00000     0.08485     0.03430 =
      0.05662     0.00579     0.02086     0.02756
N7    3   0.212289   0.472685   0.199371    11.00000     0.06109     0.04840 =
      0.05689     0.01200     0.00738     0.00746
C4    1   0.593601   0.187160   0.192570    11.00000     0.05116     0.04661 =
      0.05752     0.01313     0.01404     0.01212
C5    1   0.429704   0.551438   0.288926    11.00000     0.06227     0.03877 =
      0.06540     0.01298     0.00598     0.00550
C6    1   0.274402   0.401962   0.425804    11.00000     0.06247     0.04954 =
      0.04211     0.00518     0.00639     0.01872
C7    1   0.221740   0.163467   0.116961    11.00000     0.07511     0.03976 =
      0.05021     0.00449    -0.00411     0.01442
C8    1   0.153774   0.557724   0.182745    11.00000     0.08416     0.03987 =
      0.06244     0.01505     0.00494     0.01580
AFIX 43
H8    2   0.166297   0.627769   0.216492    11.00000    -1.20000
AFIX 0
N8    3   0.529919  -0.061234   0.166176    11.00000     0.07177     0.06018 =
      0.06602     0.01839     0.01367     0.01296
C9    1   0.194264   0.450715   0.469761    11.00000     0.07232     0.07068 =
      0.04990     0.00504     0.01693     0.02861
AFIX 43
H9    2   0.172741   0.520301   0.470494    11.00000    -1.20000
AFIX 0
C10   1   0.460750   0.514857   0.397229    11.00000     0.06600     0.04302 =
      0.05160     0.00158    -0.00273     0.00809
C11   1   0.735874   0.360495   0.198475    11.00000     0.05860     0.04900 =
      0.08457     0.01694     0.03015     0.00189
C12   1   0.059961   0.434646   0.067470    11.00000     0.10198     0.05919 =
      0.05077     0.02306    -0.00697     0.01020
AFIX 43
H12   2   0.008851   0.421530   0.023108    11.00000    -1.20000
AFIX 0
C13   1   0.309862   0.295231   0.421825    11.00000     0.06367     0.04497 =
      0.04442     0.00694     0.01235     0.01126
C14   1   0.176479   0.296750   0.511467    11.00000     0.08558     0.08042 =
      0.05871     0.01298     0.02662     0.01211
AFIX 43
H14   2   0.143084   0.261013   0.539663    11.00000    -1.20000
AFIX 0
C15   1   0.678381   0.130475   0.361673    11.00000     0.06545     0.05766 =
      0.06115     0.01994    -0.00203     0.01156
C16   1   0.115837   0.018908   0.175104    11.00000     0.04578     0.08402 =
      0.08857     0.02742     0.00826    -0.00274
C17   1   0.514321   0.561722   0.353221    11.00000     0.06645     0.04500 =
      0.06307     0.00773    -0.00200    -0.00261
C18   1   0.717373   0.263042   0.386390    11.00000     0.07076     0.06924 =
      0.07441     0.01689     0.00337     0.00475
AFIX 137
H18A  2   0.809752   0.291182   0.411757    11.00000    -1.50000
H18B  2   0.657000   0.293250   0.415051    11.00000    -1.50000
H18C  2   0.702465   0.285046   0.345780    11.00000    -1.50000
AFIX 0
C19   1   0.422289   0.134395   0.376716    11.00000     0.07968     0.04632 =
      0.04936     0.01587     0.01944     0.02154
C20   1   0.076672   0.540388   0.116574    11.00000     0.11440     0.05213 =
      0.06037     0.02229    -0.00028     0.02984
AFIX 43
H20   2   0.037842   0.597589   0.105722    11.00000    -1.20000
AFIX 0
C21   1   0.257973   0.244993   0.468470    11.00000     0.08341     0.06139 =
      0.05275     0.01735     0.02420     0.01517
AFIX 43
H21   2   0.279789   0.176298   0.469661    11.00000    -1.20000
AFIX 0
C22   1   0.223620  -0.048835   0.063251    11.00000     0.08410     0.04899 =
      0.05633    -0.00392    -0.00580     0.01377
C23   1   0.144836   0.399139   0.512877    11.00000     0.07587     0.09567 =
      0.06040     0.01552     0.02894     0.03449
AFIX 43
H23   2   0.091313   0.433618   0.542093    11.00000    -1.20000
AFIX 0
C24   1   0.498648  -0.063172   0.321240    11.00000     0.10612     0.04151 =
      0.07682     0.02428     0.01476     0.01951
C25   1   0.336891  -0.040198   0.019260    11.00000     0.11803     0.07693 =
      0.05909     0.00533     0.01919     0.03277
AFIX 137
H25A  2   0.315723  -0.095969  -0.025925    11.00000    -1.50000
H25B  2   0.421103  -0.048030   0.045390    11.00000    -1.50000
H25C  2   0.345157   0.033141   0.014858    11.00000    -1.50000
AFIX 0
C26   1   0.359127  -0.142349   0.283248    11.00000     0.10936     0.05137 =
      0.10151     0.02369     0.01631    -0.00822
AFIX 137
H26A  2   0.354192  -0.215831   0.287356    11.00000    -1.50000
H26B  2   0.345177  -0.148564   0.235263    11.00000    -1.50000
H26C  2   0.290160  -0.106453   0.302735    11.00000    -1.50000
AFIX 0
C27   1   0.608633  -0.252713   0.114377    11.00000     0.09624     0.04476 =
      0.08478     0.01089     0.03074     0.03841
C28   1   1.092763   0.715072   0.371307    11.00000     0.15213     0.07812 =
      0.12156     0.03381     0.04685     0.03883
AFIX 43
H28   2   1.103390   0.640272   0.358917    11.00000    -1.20000
AFIX 0
C29   1   0.790899   0.087776   0.323265    11.00000     0.06106     0.10983 =
      0.11575     0.03444     0.00850     0.03412
AFIX 137
H29A  2   0.881670   0.120869   0.349596    11.00000    -1.50000
H29B  2   0.776208   0.104846   0.280910    11.00000    -1.50000
H29C  2   0.778782   0.007920   0.312858    11.00000    -1.50000
AFIX 0
C30   1   0.196327  -0.175301   0.062112    11.00000     0.10562     0.04483 =
      0.09475    -0.00873    -0.01118     0.00725
AFIX 137
H30A  2   0.176131  -0.229553   0.016431    11.00000    -1.50000
H30B  2   0.121180  -0.182907   0.083509    11.00000    -1.50000
H30C  2   0.276350  -0.187563   0.089331    11.00000    -1.50000
AFIX 0
C31   1   0.856078   0.303879   0.190078    11.00000     0.07018     0.12705 =
      0.23350     0.07565     0.08496     0.03005
AFIX 137
H31A  2   0.922747   0.349779   0.178191    11.00000    -1.50000
H31B  2   0.828089   0.232510   0.153935    11.00000    -1.50000
H31C  2   0.894690   0.292943   0.232708    11.00000    -1.50000
AFIX 0
C32   1   0.100798   0.097655   0.243203    11.00000     0.07710     0.13372 =
      0.08480     0.02155     0.01996     0.01958
AFIX 137
H32A  2   0.019716   0.075653   0.256984    11.00000    -1.50000
H32B  2   0.100666   0.170428   0.238397    11.00000    -1.50000
H32C  2   0.178963   0.100343   0.277708    11.00000    -1.50000
AFIX 0
C33   1  -0.035642  -0.002620   0.126577    11.00000     0.05220     0.15666 =
      0.12399     0.01754     0.00503    -0.00290
AFIX 137
H33A  2  -0.106823  -0.020265   0.148346    11.00000    -1.50000
H33B  2  -0.040155  -0.063613   0.084995    11.00000    -1.50000
H33C  2  -0.046484   0.064282   0.115330    11.00000    -1.50000
AFIX 0
C34   1   1.057893   0.936388   0.406113    11.00000     0.16675     0.08656 =
      0.15328     0.00296     0.00104     0.03158
AFIX 43
H34   2   1.046828   1.011077   0.418208    11.00000    -1.20000
AFIX 0
C35   1   0.541767  -0.081116   0.394487    11.00000     0.17610     0.07224 =
      0.09860     0.04894     0.00574     0.02360
AFIX 137
H35A  2   0.530325  -0.158480   0.391710    11.00000    -1.50000
H35B  2   0.486956  -0.042587   0.423842    11.00000    -1.50000
H35C  2   0.635571  -0.047182   0.413381    11.00000    -1.50000
AFIX 0
C36   1   0.773318   0.474811   0.249344    11.00000     0.21444     0.08075 =
      0.20799    -0.03423     0.13239    -0.06879
AFIX 137
H36A  2   0.843883   0.516960   0.237482    11.00000    -1.50000
H36B  2   0.805232   0.470750   0.294703    11.00000    -1.50000
H36C  2   0.695206   0.511115   0.248951    11.00000    -1.50000
AFIX 0
C37   1   0.639250  -0.259393   0.047228    11.00000     0.14880     0.11821 =
      0.10639     0.00086     0.05305     0.04574
AFIX 137
H37A  2   0.665212  -0.330487   0.027195    11.00000    -1.50000
H37B  2   0.712460  -0.200091   0.053491    11.00000    -1.50000
H37C  2   0.560151  -0.251981   0.016973    11.00000    -1.50000
AFIX 0
C38   1   0.676918   0.370139   0.127027    11.00000     0.11641     0.13067 =
      0.13339     0.07349     0.02733    -0.01028
AFIX 137
H38A  2   0.745322   0.411854   0.113578    11.00000    -1.50000
H38B  2   0.600327   0.408092   0.129831    11.00000    -1.50000
H38C  2   0.648496   0.296459   0.093307    11.00000    -1.50000
AFIX 0
C39   1   1.149815   0.902192   0.448622    11.00000     0.18720     0.13436 =
      0.09730     0.01642    -0.02866    -0.00888
AFIX 43
H39   2   1.201073   0.954417   0.489801    11.00000    -1.20000
AFIX 0
C40   1   1.001776   0.750717   0.329714    11.00000     0.15218     0.09240 =
      0.15813     0.00276    -0.01478     0.01598
AFIX 43
H40   2   0.950284   0.698690   0.288521    11.00000    -1.20000
AFIX 0
C41   1   0.483658  -0.346086   0.103906    11.00000     0.17116     0.04950 =
      0.24616     0.04119     0.09336     0.02719
AFIX 137
H41A  2   0.506903  -0.418774   0.085284    11.00000    -1.50000
H41B  2   0.407345  -0.337533   0.072400    11.00000    -1.50000
H41C  2   0.460587  -0.338837   0.147655    11.00000    -1.50000
AFIX 0
C42   1   0.982785   0.860008   0.345937    11.00000     0.17439     0.10861 =
      0.15939     0.00367    -0.02043     0.04643
AFIX 43
H42   2   0.919659   0.881590   0.316330    11.00000    -1.20000
AFIX 0
C43   1   1.168242   0.791994   0.431813    11.00000     0.15700     0.22945 =
      0.15900     0.12921     0.02983     0.07237
AFIX 43
H43   2   1.231338   0.770185   0.461308    11.00000    -1.20000
AFIX 0
C44   1   0.722466  -0.264549   0.165435    11.00000     0.19050     0.10119 =
      0.14053     0.02651    -0.00385     0.08449
AFIX 137
H44A  2   0.749060  -0.336069   0.147468    11.00000    -1.50000
H44B  2   0.694241  -0.259412   0.207775    11.00000    -1.50000
H44C  2   0.798075  -0.205858   0.174243    11.00000    -1.50000
AFIX 0
HKLF 4
END
