TITL CrystalPilot n0034 in C 2 2 21
REM CrystalPilot node n0034 tool=add_hydrogens
CELL 0.68914 15.79000 32.31000 11.86000 90.0000 90.0000 90.0000
ZERR 8 0 0 0 0 0 0
LATT -7
SYMM X,-Y,-Z
SYMM -X,Y,-Z+1/2
SYMM -X,-Y,Z+1/2
SFAC C H O Cu
UNIT 194.8 100.0 56.0 8.0

WGHT 0.100000 0.000000
FVAR 0.28046
CU1   4   0.069033   0.019832   0.363619    11.00000     0.03969     0.02063 =
      0.08303     0.00082    -0.01851    -0.00175
C1    1   0.071556   0.294451   0.210804    11.00000     0.03287     0.01763 =
      0.04901    -0.00430     0.01063    -0.00151
C2    1   0.000000   0.272141   0.250000    10.50000     0.03290     0.01503 =
      0.04975     0.00000     0.00568     0.00000
C3    1   0.000000   0.405775   0.250000    10.50000     0.08399     0.00947 =
      0.04781     0.00000     0.00432     0.00000
O1    3   0.159188   0.046585   0.449389    11.00000     0.04899     0.04741 =
      0.07764     0.00329    -0.02312    -0.02159
C4    1   0.000000   0.360021   0.250000    10.50000     0.04714     0.01633 =
      0.04780     0.00000     0.00897     0.00000
C5    1   0.071801   0.337784   0.211340    11.00000     0.03857     0.02253 =
      0.04503    -0.00279     0.00631    -0.00470
O2    3   0.031642   0.076332   0.335880    11.00000     0.08465     0.02109 =
      0.09223     0.00199    -0.02922     0.00447
C6    1   0.000000   0.140502   0.250000    10.50000     0.05729     0.01640 =
      0.05919     0.00000    -0.01228     0.00000
O3    3   0.000000  -0.002091   0.250000    10.50000     0.10249     0.02342 =
      0.15723     0.00000    -0.08043     0.00000
C7    1   0.217769   0.218428   0.063293    11.00000     0.12025     0.11175 =
      0.04216     0.00185     0.01429     0.08211
AFIX 43
H7    2   0.216859   0.200091   0.002862    11.00000    -1.20000
AFIX 0
O4    3   0.122978   0.033744   0.628731    11.00000     0.05587     0.03659 =
      0.09164    -0.01241     0.03016    -0.02217
C8    1   0.148319   0.271206   0.175482    11.00000     0.04362     0.03004 =
      0.04838    -0.00652     0.01570     0.00114
C9    1   0.000000   0.226629   0.250000    10.50000     0.04002     0.01794 =
      0.05089     0.00000     0.00335     0.00000
C10   1   0.229531   0.083086   0.592364    11.00000     0.04047     0.03302 =
      0.05733    -0.00106     0.00084    -0.01170
C11   1   0.144993   0.362555   0.168625    11.00000     0.04525     0.03579 =
      0.04903    -0.00168     0.00228    -0.01937
C12   1   0.168632   0.362097   0.055160    11.00000     0.04030     0.04461 =
      0.04859    -0.00185     0.00670    -0.01500
AFIX 43
H12   2   0.143798   0.343441   0.005434    11.00000    -1.20000
AFIX 0
C13   3   0.121823   0.333424   0.724398    11.00000     0.13949     0.14838 =
      0.05957    -0.01310    -0.00767     0.10021
C14   1   0.146256   0.242968   0.085490    11.00000     0.09421     0.04833 =
      0.04225    -0.00387     0.01502     0.02886
AFIX 43
H14   2   0.098000   0.240541   0.041020    11.00000    -1.20000
AFIX 0
C15   1   0.206649   0.249795   0.718887    11.00000     0.05632     0.10352 =
      0.06801    -0.01307    -0.01263     0.03299
AFIX 43
H15   2   0.158471   0.247047   0.763368    11.00000    -1.20000
AFIX 0
C16   1   0.229904   0.389924   0.017177    11.00000     0.04551     0.03298 =
      0.05820    -0.00287     0.01339    -0.01097
AFIX 43
H16   2   0.244004   0.390575  -0.058937    11.00000    -1.20000
AFIX 0
C17   1   0.054271   0.161757   0.321641    11.00000     0.06050     0.02521 =
      0.06935    -0.00264    -0.02120     0.00225
AFIX 43
H17   2   0.089624   0.147380   0.370626    11.00000    -1.20000
AFIX 0
C18   1   0.055155   0.204477   0.319329    11.00000     0.04522     0.02335 =
      0.06255    -0.00083    -0.01342     0.00267
AFIX 43
H18   2   0.093213   0.218751   0.364819    11.00000    -1.20000
AFIX 0
C19   1   0.222222   0.274442   0.236942    11.00000     0.03575     0.07465 =
      0.07534    -0.00787     0.00688     0.01307
AFIX 43
H19   2   0.224438   0.294127   0.294077    11.00000    -1.20000
AFIX 0
C20   1   0.003013   0.427545   0.150381    11.00000     0.16203     0.02115 =
      0.04344     0.00227     0.01499    -0.00055
AFIX 43
H20   2   0.003486   0.413258   0.082310    11.00000    -1.20000
AFIX 0
O5    3   0.030493   0.000000   0.000000    10.50000     0.03805     0.12836 =
      0.15216    -0.03366     0.00000     0.00000
C21   1   0.210457   0.278920   0.629830    11.00000     0.10131     0.12899 =
      0.05231    -0.00836    -0.02228     0.08358
C22   1   0.188193   0.388213   0.244235    11.00000     0.08029     0.04968 =
      0.04776    -0.00380    -0.00780    -0.03097
AFIX 43
H22   2   0.175683   0.386676   0.320746    11.00000    -1.20000
AFIX 0
C23   1   0.000000   0.492109   0.250000    10.50000     0.64634     0.02047 =
      0.05177     0.00000     0.07782     0.00000
AFIX 43
H23   2   0.000000   0.520893   0.250000    10.50000    -1.20000
AFIX 0
C24   1   0.000000   0.092570   0.250000    10.50000     0.06223     0.02449 =
      0.07245     0.00000    -0.01957     0.00000
C25   1   0.251104   0.084292   0.707571    11.00000     0.06584     0.04749 =
      0.05622     0.00175     0.00507    -0.03006
AFIX 43
H25   2   0.224560   0.066657   0.758483    11.00000    -1.20000
AFIX 0
C26   1   0.005340   0.470157   0.149851    11.00000     0.39514     0.02311 =
      0.04858     0.00565     0.04103     0.00673
AFIX 43
H26   2   0.010526   0.484286   0.081883    11.00000    -1.20000
AFIX 0
C27   3   0.108116   0.316905   0.513653    11.00000     0.09681     0.13223 =
      0.19684     0.00996    -0.02521     0.04698
C29X  1   0.164747   0.052579   0.553739    11.00000     0.03929     0.02538 =
      0.07587    -0.00063     0.00685    -0.00802
C30X  1   0.129275   0.306056   0.616403    11.00000     0.13969     0.19746 =
      0.04933    -0.03564    -0.03378     0.13155
C32X  3   0.051148   0.281803   0.597480    11.00000     0.11397     0.30149 =
      0.13302    -0.13604    -0.08436     0.14311
C34X  1   0.173805   0.351264   0.525450    10.85000     0.22385     0.20219 =
      0.07358     0.05878     0.04320     0.17534
HKLF 4
END
