TITL CrystalPilot n0013 in I 41/a m d :2
REM CrystalPilot node n0013 tool=refine
REM R1 = 0.0615 wR2 = 0.2002 GooF = 1.0
CELL 1.54178 15.85170 15.85170 57.50380 90.0000 90.0000 90.0000
ZERR 4 0 0 0 0 0 0
LATT 2
SYMM -Y+1/4,X+3/4,Z+1/4
SYMM Y+1/4,-X+1/4,Z+3/4
SYMM X,-Y,-Z
SYMM -X,Y+1/2,-Z
SYMM -X,-Y+1/2,Z
SYMM Y+1/4,X+3/4,-Z+1/4
SYMM -Y+1/4,-X+1/4,-Z+3/4
SFAC C H O Zr
UNIT 272.0 144.0 128.0 24.0

WGHT 0.143400 13.719000
FVAR 0.12873
FE01  4   0.000000   0.250000   0.331560    10.25000     0.05443     0.03151 =
      0.03575     0.00000    -0.00000    -0.00000
ZR02  4   0.110248   0.360248   0.375000    10.50000     0.06232     0.06232 =
      0.04247    -0.00300     0.00300    -0.02907
O004  3   0.126259   0.250000   0.350610    10.50000     0.04755     0.07509 =
      0.05033     0.00000     0.01194    -0.00000
O005  3   0.089351   0.335449   0.437094    11.00000     0.06062     0.10269 =
      0.06876    -0.02162    -0.01674    -0.01355
O006  3   0.161163   0.404803   0.408058    11.00000     0.10407     0.14645 =
      0.06046    -0.01101    -0.01177    -0.06229
O007  3   0.075012   0.500968   0.374451    11.00000     0.35217     0.06935 =
      0.06828    -0.00870     0.03617    -0.09749
C008  1   0.217789   0.386909   0.468447    11.00000     0.05809     0.12120 =
      0.06674    -0.02435    -0.00724    -0.00618
AFIX 43
H008  2   0.176897   0.350060   0.474043    11.00000    -1.20000
AFIX 0
C009  1   0.213991   0.415095   0.446029    11.00000     0.06164     0.10482 =
      0.07063    -0.02709    -0.00347    -0.01356
C00A  1   0.148593   0.383981   0.429126    11.00000     0.06429     0.10298 =
      0.06475    -0.01480    -0.00544    -0.01745
C00B  1   0.500000   0.472563   0.477664    10.50000     0.05019     0.14328 =
      0.08244    -0.05219    -0.00000    -0.00000
AFIX 43
H00B  2   0.500000   0.451988   0.462518    10.50000    -1.20000
AFIX 0
C00D  1   0.344954   0.468605   0.474596    11.00000     0.05088     0.12811 =
      0.07519    -0.04537    -0.00544    -0.00199
C00E  1   0.422251   0.487369   0.488563    11.00000     0.05184     0.13063 =
      0.07234    -0.04467    -0.00047    -0.00763
C00F  1   0.272706   0.473241   0.437620    11.00000     0.07896     0.13834 =
      0.07991    -0.01353    -0.00918    -0.04090
AFIX 43
H00F  2   0.267824   0.495113   0.422674    11.00000    -1.20000
AFIX 0
O5X   3   0.000000   0.156511   0.356669    10.50000     0.06033     0.03240 =
      0.04098     0.00317    -0.00000    -0.00000
C8X   1   0.163329   0.032661   0.732818    11.00000     0.13456     0.06191 =
      0.07119    -0.00419    -0.02959     0.00005
AFIX 43
H8X   2   0.144212   0.034962   0.748095    11.00000    -1.20000
AFIX 0
C9X   1   0.161393   0.002266   0.047935    11.00000     0.07368     0.13260 =
      0.08382    -0.01334    -0.01086    -0.02797
AFIX 43
H9X   2   0.120643  -0.034613   0.053594    11.00000    -1.20000
AFIX 0
HKLF 4
END
