TITL CrystalPilot n0011 in P -1
REM CrystalPilot node n0011 tool=add_hydrogens
REM R1 = 0.073 wR2 = 0.2574 GooF = 1.893
CELL 0.71073 10.15540 12.70750 20.80080 107.6910 100.3150 96.2330
ZERR 2 0.00170 0.00210 0.00440 0.0030 0.0030 0.0020
LATT 1
SFAC C H N P Ni La
UNIT 88.0 110.0 16.0 4.0 2.0 2.0

WGHT 0.100000 0.000000
FVAR 0.18926
La1   6   0.429118   0.291510   0.269802    11.00000     0.04321     0.03271 =
      0.04260     0.00558     0.00750     0.00936
Ni1   5   0.466822   0.070246   0.207443    11.00000     0.04974     0.03170 =
      0.04644     0.00535     0.01055     0.01088
P1    4   0.260740   0.052219   0.145690    11.00000     0.05209     0.03300 =
      0.04713     0.00302     0.00554     0.00705
P2    4   0.511659   0.071584   0.314986    11.00000     0.06033     0.03520 =
      0.04890     0.00920     0.00927     0.01444
N1    3   0.252050   0.280730   0.170176    11.00000     0.05349     0.03361 =
      0.04674     0.00933     0.00308     0.00986
N2    3   0.382549   0.246167   0.375123    11.00000     0.06917     0.03970 =
      0.04754     0.00848     0.01770     0.01734
N3    3   0.628118   0.297258   0.217612    11.00000     0.04407     0.04194 =
      0.05804     0.00787     0.00787     0.00364
C1    1   0.295454   0.494337   0.269990    11.00000     0.05963     0.03350 =
      0.05171     0.00776     0.00301     0.01242
N4    3   0.116578   0.349255   0.083023    11.00000     0.09083     0.06126 =
      0.05350     0.01581     0.00392     0.01300
N5    3   0.245625   0.448591   0.315805    11.00000     0.06242     0.05682 =
      0.05435     0.00837     0.00739     0.01540
N6    3   0.328706   0.457315   0.379875    11.00000     0.06840     0.04296 =
      0.05420     0.00281     0.00574     0.01654
C2    1   0.194012   0.363229   0.149813    11.00000     0.05483     0.03733 =
      0.04748     0.01245     0.00897     0.01218
C3    1   0.571296  -0.143407   0.142485    11.00000     0.08590     0.03378 =
      0.06090     0.00512     0.02082     0.02952
N7    3   0.211934   0.472337   0.199082    11.00000     0.05867     0.04612 =
      0.05963     0.01188     0.00631     0.00637
C4    1   0.592955   0.187296   0.192465    11.00000     0.05259     0.04786 =
      0.05607     0.01064     0.01451     0.01119
C5    1   0.431022   0.551678   0.288381    11.00000     0.06662     0.03702 =
      0.06108     0.01092     0.00411     0.00451
C6    1   0.274719   0.402176   0.425477    11.00000     0.06078     0.05276 =
      0.03991     0.00208     0.00626     0.01921
C7    1   0.220033   0.171502   0.115449    11.00000     0.07131     0.03941 =
      0.05201     0.00437    -0.00544     0.01347
C8    1   0.152927   0.559410   0.184050    11.00000     0.08271     0.04410 =
      0.06598     0.01892     0.00602     0.01368
AFIX 43
H8    2   0.164280   0.628985   0.218114    11.00000    -1.20000
AFIX 0
N8    3   0.531090  -0.061463   0.165332    11.00000     0.07450     0.06292 =
      0.06329     0.01768     0.01284     0.01214
C9    1   0.194074   0.452439   0.469621    11.00000     0.07635     0.08045 =
      0.04883     0.00854     0.01919     0.03300
AFIX 43
H9    2   0.172737   0.522100   0.470412    11.00000    -1.20000
AFIX 0
C10   1   0.462504   0.514263   0.397029    11.00000     0.06746     0.04200 =
      0.05635     0.00451    -0.00142     0.00995
C11   1   0.733417   0.359262   0.197411    11.00000     0.05742     0.04946 =
      0.08626     0.01575     0.02956     0.00221
C12   1   0.059640   0.435670   0.067947    11.00000     0.09602     0.05794 =
      0.05021     0.02093    -0.00095     0.01340
AFIX 43
H12   2   0.008761   0.422352   0.023510    11.00000    -1.20000
AFIX 0
C13   1   0.308967   0.294840   0.421665    11.00000     0.06366     0.04691 =
      0.04376     0.00765     0.01206     0.00982
C14   1   0.175404   0.297997   0.512081    11.00000     0.08041     0.08090 =
      0.06192     0.00661     0.02084     0.00797
AFIX 43
H14   2   0.142766   0.262685   0.540657    11.00000    -1.20000
AFIX 0
C15   1   0.690490   0.134592   0.364546    11.00000     0.06514     0.06043 =
      0.05938     0.01783    -0.00170     0.01012
C16   1   0.105858   0.015260   0.175625    11.00000     0.04661     0.08154 =
      0.08786     0.02711     0.01224    -0.00120
C17   1   0.513793   0.561206   0.352893    11.00000     0.06253     0.04664 =
      0.06621     0.00847     0.00065    -0.00468
C18   1   0.715146   0.263925   0.385858    11.00000     0.06829     0.06198 =
      0.07877     0.01328    -0.00124     0.00541
AFIX 137
H18A  2   0.807415   0.293372   0.411061    11.00000    -1.50000
H18B  2   0.654486   0.293155   0.414604    11.00000    -1.50000
H18C  2   0.698853   0.285586   0.345148    11.00000    -1.50000
AFIX 0
C19   1   0.416794   0.139213   0.380936    11.00000     0.07432     0.04611 =
      0.05062     0.01467     0.01693     0.01984
C20   1   0.075640   0.540132   0.116220    11.00000     0.11021     0.04898 =
      0.05905     0.02007    -0.00286     0.02576
AFIX 43
H20   2   0.036847   0.596946   0.104826    11.00000    -1.20000
AFIX 0
C21   1   0.257123   0.244190   0.468130    11.00000     0.08439     0.06809 =
      0.04900     0.01620     0.02286     0.01434
AFIX 43
H21   2   0.278001   0.175108   0.469028    11.00000    -1.20000
AFIX 0
C22   1   0.222065  -0.055988   0.056327    11.00000     0.09187     0.04981 =
      0.05622    -0.00477    -0.01145     0.01706
C23   1   0.143746   0.398349   0.513679    11.00000     0.07446     0.08954 =
      0.06471     0.01552     0.02900     0.02775
AFIX 43
H23   2   0.089970   0.432242   0.542936    11.00000    -1.20000
AFIX 0
C24   1   0.497021  -0.073143   0.321477    11.00000     0.10208     0.04363 =
      0.08413     0.02616     0.01317     0.01855
C25   1   0.333999  -0.041321   0.019128    11.00000     0.10405     0.07843 =
      0.05993     0.00719     0.02645     0.02165
AFIX 137
H25A  2   0.312230  -0.097082  -0.026072    11.00000    -1.50000
H25B  2   0.418164  -0.049591   0.045071    11.00000    -1.50000
H25C  2   0.342734   0.032032   0.014747    11.00000    -1.50000
AFIX 0
C26   1   0.354409  -0.144833   0.281829    11.00000     0.11112     0.05346 =
      0.09710     0.02217     0.01102    -0.01026
AFIX 137
H26A  2   0.349868  -0.218239   0.286034    11.00000    -1.50000
H26B  2   0.340418  -0.151189   0.233821    11.00000    -1.50000
H26C  2   0.285237  -0.109161   0.301249    11.00000    -1.50000
AFIX 0
C27   1   0.604950  -0.253519   0.114104    11.00000     0.10034     0.04412 =
      0.08585     0.00932     0.02892     0.04031
C28   1   1.078733   0.711110   0.366605    11.00000     0.12393     0.08515 =
      0.12681     0.03018     0.04303     0.03685
AFIX 43
H28   2   1.072008   0.634247   0.357867    11.00000    -1.20000
AFIX 0
C29   1   0.794570   0.091495   0.323725    11.00000     0.07021     0.11671 =
      0.11818     0.03785     0.00615     0.04265
AFIX 137
H29A  2   0.884359   0.125857   0.350989    11.00000    -1.50000
H29B  2   0.780499   0.109783   0.281776    11.00000    -1.50000
H29C  2   0.784699   0.011579   0.312583    11.00000    -1.50000
AFIX 0
C30   1   0.200819  -0.175529   0.062453    11.00000     0.10422     0.04015 =
      0.10233    -0.00510    -0.00386     0.00085
AFIX 137
H30A  2   0.181141  -0.230709   0.017100    11.00000    -1.50000
H30B  2   0.126287  -0.183693   0.084170    11.00000    -1.50000
H30C  2   0.281934  -0.185852   0.089864    11.00000    -1.50000
AFIX 0
C31   1   0.856417   0.302339   0.186217    11.00000     0.07867     0.11824 =
      0.25924     0.06410     0.09747     0.03644
AFIX 137
H31A  2   0.920363   0.348736   0.173111    11.00000    -1.50000
H31B  2   0.827396   0.230935   0.150175    11.00000    -1.50000
H31C  2   0.898756   0.291591   0.228334    11.00000    -1.50000
AFIX 0
C32   1   0.106129   0.101818   0.244882    11.00000     0.08874     0.12568 =
      0.08470     0.01453     0.02943     0.02298
AFIX 137
H32A  2   0.025823   0.082135   0.259986    11.00000    -1.50000
H32B  2   0.107598   0.174476   0.239749    11.00000    -1.50000
H32C  2   0.185135   0.103397   0.278561    11.00000    -1.50000
AFIX 0
C33   1  -0.036350  -0.000822   0.123437    11.00000     0.04880     0.17192 =
      0.11536     0.02341     0.00881    -0.00574
AFIX 137
H33A  2  -0.108985  -0.019623   0.144025    11.00000    -1.50000
H33B  2  -0.040366  -0.060122   0.081122    11.00000    -1.50000
H33C  2  -0.045268   0.067601   0.113763    11.00000    -1.50000
AFIX 0
C34   1   1.054274   0.936662   0.407297    11.00000     0.18708     0.08831 =
      0.12928    -0.00662    -0.02065     0.03374
AFIX 43
H34   2   1.040183   1.010566   0.418472    11.00000    -1.20000
AFIX 0
C35   1   0.541490  -0.082011   0.395545    11.00000     0.16437     0.07809 =
      0.09374     0.04916     0.01020     0.01756
AFIX 137
H35A  2   0.529608  -0.159513   0.392455    11.00000    -1.50000
H35B  2   0.486731  -0.043546   0.424958    11.00000    -1.50000
H35C  2   0.635362  -0.048403   0.414578    11.00000    -1.50000
AFIX 0
C36   1   0.776633   0.476931   0.249420    11.00000     0.16286     0.07628 =
      0.19254    -0.03632     0.10545    -0.05191
AFIX 137
H36A  2   0.846053   0.517719   0.236044    11.00000    -1.50000
H36B  2   0.811456   0.472837   0.294491    11.00000    -1.50000
H36C  2   0.699729   0.514670   0.250623    11.00000    -1.50000
AFIX 0
C37   1   0.640163  -0.254891   0.046754    11.00000     0.18307     0.12456 =
      0.08897     0.00245     0.05229     0.07316
AFIX 137
H37A  2   0.663833  -0.326124   0.024739    11.00000    -1.50000
H37B  2   0.715823  -0.196312   0.055425    11.00000    -1.50000
H37C  2   0.563337  -0.243114   0.017059    11.00000    -1.50000
AFIX 0
C38   1   0.669264   0.372151   0.126120    11.00000     0.14215     0.11427 =
      0.11457     0.05532     0.03566     0.00439
AFIX 137
H38A  2   0.736894   0.412878   0.111653    11.00000    -1.50000
H38B  2   0.594821   0.412220   0.131235    11.00000    -1.50000
H38C  2   0.636933   0.299219   0.091971    11.00000    -1.50000
AFIX 0
C39   1   1.145062   0.905620   0.448056    11.00000     0.17161     0.12383 =
      0.10312     0.01704    -0.02524     0.02291
AFIX 43
H39   2   1.190929   0.956210   0.490991    11.00000    -1.20000
AFIX 0
C40   1   1.002688   0.747160   0.326836    11.00000     0.11696     0.09223 =
      0.14965     0.01932    -0.00958     0.01559
AFIX 43
H40   2   0.960438   0.699294   0.282514    11.00000    -1.20000
AFIX 0
C41   1   0.485560  -0.347155   0.101371    11.00000     0.13194     0.05107 =
      0.27036     0.03995     0.08508     0.02626
AFIX 137
H41A  2   0.511798  -0.418585   0.082621    11.00000    -1.50000
H41B  2   0.409861  -0.339337   0.069192    11.00000    -1.50000
H41C  2   0.460036  -0.342355   0.144302    11.00000    -1.50000
AFIX 0
C42   1   0.980570   0.854940   0.347123    11.00000     0.16811     0.13154 =
      0.14924     0.01734    -0.01085     0.04923
AFIX 43
H42   2   0.912347   0.874598   0.319044    11.00000    -1.20000
AFIX 0
C43   1   1.175057   0.786708   0.424890    11.00000     0.14793     0.26892 =
      0.18248     0.16543     0.02798     0.04206
AFIX 43
H43   2   1.250278   0.765398   0.447102    11.00000    -1.20000
AFIX 0
C44   1   0.731268  -0.258189   0.167981    11.00000     0.15781     0.10220 =
      0.14274     0.04322     0.00656     0.07268
AFIX 137
H44A  2   0.759183  -0.329693   0.152225    11.00000    -1.50000
H44B  2   0.707723  -0.248045   0.211898    11.00000    -1.50000
H44C  2   0.804416  -0.199697   0.172885    11.00000    -1.50000
AFIX 0
HKLF 4
END
