TITL CrystalPilot n0099 in P -1
REM CrystalPilot node n0099 tool=add_hydrogens
REM R1 = 0.0699 wR2 = 0.2197 GooF = 0.999
CELL 0.71073 10.15540 12.70750 20.80080 107.6910 100.3150 96.2330
ZERR 2 0.00170 0.00210 0.00440 0.0030 0.0030 0.0020
LATT 1
SFAC C H N P Ni La
UNIT 96.1 42.0 8.0 4.0 2.0 2.0

DFIX 1.3900 0.010 C32 C44
DFIX 1.3900 0.010 C44 C46
DFIX 1.3900 0.010 C46 C38
DFIX 1.3900 0.010 C38 C43
DFIX 1.3900 0.010 C43 C47
DFIX 1.3900 0.010 C47 C32
DFIX 1.3900 0.010 C61 C66
DFIX 1.3900 0.010 C66 C65
DFIX 1.3900 0.010 C65 C64
DFIX 1.3900 0.010 C64 C63
DFIX 1.3900 0.010 C63 C62
DFIX 1.3900 0.010 C62 C61
FLAT 0.01 C32 C44 C46 C38 C43 C47
FLAT 0.01 C61 C66 C65 C64 C63 C62
SADI 0.020 P1 C26 P1 C20 P1 C49 P1 C52
SADI 0.020 C26 C29 C26 C34 C20 C37 C20 C36 C49 C50 C49 C51 C52 C53 C52 C54
SIMU 0.010 0.020 P1 C26 C29 C34 C20 C37 C36 C49 C50 C51 C52 C53 C54
SADI 0.020 C15 C40 C15 C42 C15 C35 C15 C55 C15 C56 C15 C57
SIMU 0.010 0.020 C15 C40 C42 C35 C55 C56 C57
SADI 0.020 C31 C48 C31 C41 C31 C45 C31 C58 C31 C59 C31 C60
SIMU 0.010 0.020 C31 C48 C41 C45 C58 C59 C60
SIMU 0.010 0.020 C32 C44 C46 C38 C43 C47 C61 C66 C65 C64 C63 C62

WGHT 0.092580 12.699160
FVAR 0.19010 0.78356 0.83298 0.73009 0.71848
La1   6   0.429123   0.291517   0.269800    11.00000     0.04318     0.03275 =
      0.04269     0.00567     0.00729     0.00973
Ni1   5   0.466915   0.070243   0.207493    11.00000     0.04991     0.03170 =
      0.04635     0.00546     0.01006     0.01110
P1    4   0.260813   0.052413   0.145818    11.00000     0.05204     0.03300 =
      0.04693     0.00255     0.00463     0.00651
P2    4   0.511628   0.071648   0.314987    11.00000     0.06023     0.03562 =
      0.04906     0.00991     0.00956     0.01504
N1    3   0.251716   0.281049   0.169986    11.00000     0.05663     0.03233 =
      0.04701     0.00691     0.00290     0.01108
N2    3   0.383607   0.247134   0.375659    11.00000     0.06430     0.04150 =
      0.04716     0.01003     0.01577     0.01656
N3    3   0.627279   0.295888   0.216947    11.00000     0.04632     0.04386 =
      0.05511     0.01119     0.00961     0.00314
C1    1   0.295269   0.494004   0.270086    11.00000     0.05455     0.03470 =
      0.04850     0.00581     0.00387     0.01308
C2    1   0.116769   0.349147   0.082938    11.00000     0.07607     0.04678 =
      0.04082     0.00924     0.00367     0.01090
AFIX 43
H2    2   0.103768   0.280081   0.048209    11.00000    -1.20000
AFIX 0
C3    1   0.245969   0.449712   0.315961    11.00000     0.05353     0.04183 =
      0.04635     0.00517     0.00476     0.01540
C4    1   0.328283   0.458351   0.380148    11.00000     0.05749     0.03556 =
      0.04253     0.00196     0.00722     0.01450
C5    1   0.194910   0.363059   0.150005    11.00000     0.05464     0.03827 =
      0.04532     0.01308     0.00545     0.00951
C6    1   0.570087  -0.144254   0.142326    11.00000     0.08382     0.03449 =
      0.05513     0.00643     0.02147     0.02622
C7    1   0.212154   0.472453   0.199016    11.00000     0.05142     0.03874 =
      0.04606     0.00936     0.00705     0.00591
C8    1   0.593776   0.187683   0.193014    11.00000     0.05137     0.04647 =
      0.05734     0.01278     0.01211     0.01262
C9    1   0.429253   0.550462   0.288855    11.00000     0.06306     0.03784 =
      0.06438     0.01390     0.00713     0.00483
C10   1   0.273924   0.401650   0.425767    11.00000     0.06288     0.05055 =
      0.04120     0.00489     0.00614     0.01885
C11   1   0.219032   0.170866   0.115284    11.00000     0.07526     0.03791 =
      0.05032     0.00466    -0.00355     0.01348
C12   1   0.153937   0.558129   0.182926    11.00000     0.08066     0.04155 =
      0.06031     0.01408     0.00429     0.01608
AFIX 43
H12   2   0.165500   0.627849   0.216876    11.00000    -1.20000
AFIX 0
N4    3   0.529612  -0.061203   0.166062    11.00000     0.07302     0.06034 =
      0.06554     0.01704     0.01410     0.01192
C13   1   0.193617   0.450809   0.469633    11.00000     0.07212     0.07039 =
      0.05035     0.00591     0.01726     0.02924
AFIX 43
H13   2   0.171915   0.520244   0.470110    11.00000    -1.20000
AFIX 0
C14   1   0.460936   0.514896   0.396646    11.00000     0.06873     0.04554 =
      0.04837     0.00171    -0.00413     0.00875
C15   1   0.736096   0.360745   0.198664    11.00000     0.06651     0.05833 =
      0.10111     0.01848     0.03405    -0.00381
PART 1
C16   1   0.059692   0.435318   0.067966    21.00000     0.10018     0.06182 =
      0.05102     0.02340    -0.00661     0.01113
AFIX 43
PART 0
H16   2   0.007129   0.421569   0.023835    11.00000    -1.20000
AFIX 0
C17   1   0.309386   0.294764   0.421938    11.00000     0.06343     0.04485 =
      0.04433     0.00735     0.01243     0.01161
C18   1   0.176335   0.296402   0.511355    11.00000     0.08284     0.08259 =
      0.05699     0.01337     0.02531     0.01370
AFIX 43
H18   2   0.143160   0.260351   0.539459    11.00000    -1.20000
AFIX 0
C19   1   0.689943   0.134933   0.365598    11.00000     0.06688     0.05701 =
      0.06288     0.02002    -0.00162     0.01173
C20   1   0.104077   0.020283   0.177913    10.78673     0.05135     0.07064 =
      0.08125     0.01895     0.00969     0.00332
C21   1   0.513283   0.560857   0.353045    11.00000     0.06469     0.04492 =
      0.06602     0.00784    -0.00257    -0.00448
PART 1
C22   1   0.716316   0.264338   0.386524    21.00000     0.07371     0.06583 =
      0.07309     0.01509     0.00480     0.00079
AFIX 137
PART 0
H22A  2   0.808361   0.293229   0.412226    11.00000    -1.50000
H22B  2   0.655137   0.294472   0.414691    11.00000    -1.50000
H22C  2   0.701818   0.285621   0.345641    11.00000    -1.50000
AFIX 0
C23   1   0.415913   0.138882   0.381282    11.00000     0.08130     0.04703 =
      0.04961     0.01576     0.02141     0.02303
C24   1   0.077879   0.540449   0.115948    11.00000     0.11017     0.05393 =
      0.06191     0.02361    -0.00055     0.02822
AFIX 43
H24   2   0.041097   0.598030   0.104507    11.00000    -1.20000
AFIX 0
PART 1
C25   1   0.257426   0.245648   0.468253    21.00000     0.08465     0.06159 =
      0.05322     0.01724     0.02353     0.01594
AFIX 43
PART 0
H25   2   0.279150   0.176881   0.469341    11.00000    -1.20000
AFIX 0
C26   1   0.216754  -0.059317   0.057568    10.78560     0.07235     0.04514 =
      0.05640    -0.00062     0.00256     0.00411
C27   1   0.144523   0.399672   0.512901    11.00000     0.07779     0.09353 =
      0.06229     0.01630     0.03074     0.03431
AFIX 43
H27   2   0.091360   0.434341   0.542267    11.00000    -1.20000
AFIX 0
PART 1
C28   1   0.497447  -0.073241   0.321721    51.00000     0.10449     0.04211 =
      0.07643     0.02310     0.01698     0.02093
PART 0
C29   1   0.328603  -0.043566   0.017218    10.78632     0.07839     0.05727 =
      0.05776     0.00206     0.00874     0.00807
PART 1
C30   1   0.359360  -0.142268   0.283452    21.00000     0.10455     0.05322 =
      0.10394     0.02625     0.01443    -0.00676
AFIX 137
PART 0
H30A  2   0.354585  -0.215701   0.287627    11.00000    -1.50000
H30B  2   0.345303  -0.148590   0.235448    11.00000    -1.50000
H30C  2   0.290368  -0.106415   0.302942    11.00000    -1.50000
AFIX 0
PART 1
C31   1   0.607259  -0.253332   0.114199    31.00000     0.10414     0.05000 =
      0.09239     0.00851     0.03270     0.03683
C32   1   1.092046   0.715719   0.372805    21.00000     0.13787     0.08392 =
      0.09994     0.01344     0.00703     0.03158
C33   1   0.792138   0.087518   0.322686    21.00000     0.06185     0.11087 =
      0.11138     0.02861     0.00767     0.03614
AFIX 137
PART 0
H33A  2   0.883071   0.120263   0.348902    11.00000    -1.50000
H33B  2   0.777174   0.105185   0.280534    11.00000    -1.50000
H33C  2   0.779796   0.007585   0.311905    11.00000    -1.50000
AFIX 0
PART 1
C34   1   0.193830  -0.177587   0.065330    51.00000     0.08931     0.04600 =
      0.07011     0.00208     0.00758     0.00623
PART 0
C35   1   0.858434   0.302966   0.191126    10.83401     0.06574     0.08664 =
      0.12446     0.03432     0.04274     0.00759
PART 1
C36   1   0.101777   0.102778   0.244848    31.00000     0.06031     0.07898 =
      0.07960     0.01952     0.01549     0.00910
C37   1  -0.035553   0.004515   0.127251    41.00000     0.05697     0.08977 =
      0.09906     0.02561     0.01172     0.00744
C38   1   1.057994   0.938528   0.405127    31.00000     0.13647     0.08248 =
      0.10379     0.00968    -0.00077     0.03142
C39   1   0.540470  -0.081071   0.394113    51.00000     0.17393     0.07671 =
      0.10080     0.05290     0.00914     0.02538
AFIX 137
PART 0
H39A  2   0.529009  -0.158444   0.391314    11.00000    -1.50000
H39B  2   0.485256  -0.042650   0.423259    11.00000    -1.50000
H39C  2   0.634183  -0.047040   0.413265    11.00000    -1.50000
AFIX 0
PART 1
C40   1   0.770119   0.478292   0.248802    51.00000     0.09398     0.07182 =
      0.12230     0.02307     0.04310    -0.00334
C41   1   0.648950  -0.255110   0.047326    41.00000     0.10567     0.07990 =
      0.09562     0.01488     0.03655     0.03310
C42   1   0.679232   0.370233   0.126243    51.00000     0.08889     0.08355 =
      0.10932     0.03342     0.03764     0.00105
AFIX 13
PART 0
H42   2   0.632057   0.364678   0.079599    10.83053    -1.20000
AFIX 0
PART 1
C43   1   1.147520   0.905041   0.450798    51.00000     0.14119     0.08964 =
      0.10344     0.01538     0.00305     0.03393
C44   1   1.005468   0.747523   0.325573    41.00000     0.13815     0.08645 =
      0.10685     0.01279     0.00552     0.03335
PART 0
C45   1   0.480846  -0.348024   0.096357    10.73091     0.12368     0.05258 =
      0.11068     0.01265     0.03924     0.02621
C46   1   0.983923   0.857632   0.344294    10.71834     0.13984     0.08553 =
      0.10488     0.01045     0.00275     0.03370
C47   1   1.164661   0.793843   0.434532    10.71635     0.14228     0.09113 =
      0.10380     0.01862     0.00793     0.03478
C48   1   0.715017  -0.265218   0.171542    10.73012     0.11940     0.08102 =
      0.10297     0.02892     0.03384     0.04949
C49   1   0.248299  -0.043630   0.054056    10.21799     0.07409     0.04549 =
      0.05633     0.00051     0.00526     0.00498
C50   1   0.375818  -0.020184   0.026441    10.22011     0.07538     0.05016 =
      0.05596    -0.00055     0.00617     0.00407
C51   1   0.213457  -0.167622   0.048096    10.21978     0.07742     0.04615 =
      0.05829     0.00033     0.00584     0.00442
C52   1   0.107049  -0.006514   0.169267    10.21707     0.05572     0.07166 =
      0.08130     0.01857     0.01113     0.00605
C53   1  -0.027584  -0.052475   0.114572    10.21316     0.05706     0.07909 =
      0.09249     0.02302     0.01212     0.00680
C54   1   0.096658   0.022600   0.244411    10.21591     0.06002     0.08126 =
      0.08468     0.02321     0.01364     0.00775
C55   1   0.839020   0.423406   0.267581    10.16896     0.07571     0.07441 =
      0.11815     0.02690     0.03948    -0.00125
C56   1   0.668644   0.453471   0.181849    10.16876     0.08366     0.07235 =
      0.11252     0.02677     0.03905    -0.00121
AFIX 13
H56   2   0.608943   0.506512   0.174793    10.16876    -1.20000
AFIX 0
C57   1   0.804838   0.292262   0.145312    10.16524     0.07477     0.07892 =
      0.11216     0.02989     0.04006     0.00239
C58   1   0.753396  -0.254470   0.150512    10.27064     0.10963     0.07077 =
      0.09720     0.02233     0.03337     0.04467
C59   1   0.577386  -0.281215   0.035558    10.27067     0.10820     0.07169 =
      0.09568     0.01306     0.03690     0.03556
C60   1   0.507487  -0.330044   0.135620    10.27132     0.11898     0.04897 =
      0.10216     0.01186     0.03663     0.02999
C61   1   1.180369   0.743365   0.406256    10.28502     0.14020     0.08345 =
      0.09899     0.01254     0.00676     0.03166
C62   1   1.204639   0.855660   0.447506    10.28159     0.14254     0.08667 =
      0.10128     0.01391     0.00648     0.03322
C63   1   1.116767   0.928933   0.437814    10.28077     0.14170     0.08817 =
      0.10523     0.01497     0.00485     0.03381
C64   1   1.002645   0.885054   0.383768    10.27983     0.14063     0.08851 =
      0.10586     0.01438     0.00435     0.03440
C65   1   0.969867   0.770757   0.347230    10.27985     0.13978     0.08818 =
      0.10406     0.01347     0.00561     0.03305
C66   1   1.063246   0.700961   0.354416    10.28541     0.13852     0.08597 =
      0.10151     0.01384     0.00565     0.03179
HKLF 4
END
