TITL CrystalPilot n0026 in P 21 21 21
REM CrystalPilot node n0026 tool=run_shelxl
REM R1 = 0.0424 wR2 = 0.1199 GooF = 0.981
CELL 0.68890 5.42807 8.12883 12.05269 90.0000 90.0000 90.0000
ZERR 4 0.00000 0.00000 0.00000 0.0000 0.0000 0.0000
LATT -1
SYMM X+1/2,-Y+1/2,-Z
SYMM -X,Y+1/2,-Z+1/2
SYMM -X+1/2,-Y,Z+1/2
SFAC C H N O S
UNIT 12.0 28.0 4.0 8.0 4.0

DFIX 0.8900 0.020 C4 H1X
DFIX 0.8900 0.020 C4 H2X
DFIX 0.8900 0.020 C4 H7X
DFIX 0.9700 0.020 C6 H3X
DFIX 0.9700 0.020 C6 H4X
DFIX 0.9800 0.020 C5 H5X
DFIX 1.2000 0.030 C1 H6X
SIMU 0.010 0.020 C1 H6X

WGHT 0.068900 0.111710
FVAR 1.16193
C1    5   0.118839   0.413499   0.524115    11.00000     0.02984     0.01860 =
      0.01654     0.00346     0.00001    -0.00389
C2    4   0.207527   0.216534   0.118822    11.00000     0.01045     0.02143 =
      0.02042     0.00594    -0.00001    -0.00235
C3    4   0.230950   0.008966   0.240012    11.00000     0.01663     0.02634 =
      0.02880     0.01300    -0.00296     0.00110
C4    3   0.215280   0.266527   0.874476    11.00000     0.00870     0.01692 =
      0.01687    -0.00116    -0.00088     0.00082
C5    1   0.166547   0.586827   0.323466    11.00000     0.01092     0.01708 =
      0.01302     0.00017     0.00108     0.00289
C6    1   0.242704   0.429883   0.384223    11.00000     0.01709     0.01663 =
      0.01983     0.00164    -0.00045     0.00388
C7    1   0.114879   0.105407   0.179075    11.00000     0.01103     0.01666 =
      0.01490     0.00142    -0.00053    -0.00054
H1X   2   0.255103   0.256173   0.948628    11.00000     0.01256
H2X   2   0.060592   0.283279   0.870420    11.00000     0.01781
H3X   2   0.420841   0.420995   0.399350    11.00000     0.03176
H4X   2   0.200361   0.339107   0.339911    11.00000     0.01477
H5X   2   0.222586   0.578892   0.246076    11.00000     0.02777
H6X   2   0.244910   0.502232   0.576249    11.00000     0.07091
H7X   2   0.266006   0.179593   0.837610    11.00000     0.03167
HKLF 4
END
