TITL CrystalPilot n0119 in P -1
REM CrystalPilot node n0119 tool=edit_atoms
CELL 0.71073 10.15540 12.70750 20.80080 107.6910 100.3150 96.2330
ZERR 2 0.00170 0.00210 0.00440 0.0030 0.0030 0.0020
LATT 1
SFAC C H N Si P
UNIT 92.2 127.2 8.0 4.0 4.0

DFIX 1.3900 0.010 C28 C40
DFIX 1.3900 0.010 C40 C42
DFIX 1.3900 0.010 C42 C34
DFIX 1.3900 0.010 C34 C39
DFIX 1.3900 0.010 C39 C43
DFIX 1.3900 0.010 C43 C28
DFIX 1.3900 0.010 C28B C40B
DFIX 1.3900 0.010 C40B C42B
DFIX 1.3900 0.010 C42B C34B
DFIX 1.3900 0.010 C34B C39B
DFIX 1.3900 0.010 C39B C43B
DFIX 1.3900 0.010 C43B C28B
FLAT 0.01 C28 C40 C42 C34 C39 C43
FLAT 0.01 C28B C40B C42B C34B C39B C43B
SADI 0.020 P1 C22 P1 C16 P1 C22B P1 C16B
SADI 0.020 C22 C25 C22 C30 C16 C33 C16 C32 C22B C25B C22B C30B C16B C33B =
 C16B C32B
SIMU 0.010 0.020 P1 C22 C25 C30 C16 C33 C32 C22B C25B C30B C16B C33B C32B
SADI 0.020 C11 C36 C11 C38 C11 C31 C11 C36B C11 C38B C11 C31B
SIMU 0.010 0.020 C11 C36 C38 C31 C36B C38B C31B
SADI 0.020 C27 C44 C27 C37 C27 C41 C27 C44B C27 C37B C27 C41B
SIMU 0.010 0.020 C27 C44 C37 C41 C44B C37B C41B
SIMU 0.010 0.020 C28 C40 C42 C34 C39 C43 C28B C40B C42B C34B C39B C43B

WGHT 0.092580 12.699160
FVAR 0.19006 0.78356 0.83298 0.73009 0.71848
LA1   4   0.429123   0.291518   0.269801    11.00000     0.04318     0.03273 =
      0.04265     0.00565     0.00733     0.00967
NI1   4   0.466909   0.070236   0.207487    11.00000     0.04986     0.03174 =
      0.04633     0.00544     0.01015     0.01107
P1    5   0.232262   0.045208   0.137037    11.00000     0.05206     0.03303 =
      0.04697     0.00259     0.00470     0.00647
P2    5   0.516559   0.070212   0.323729    11.00000     0.06022     0.03559 =
      0.04907     0.00989     0.00957     0.01504
N1    3   0.251721   0.281048   0.169977    11.00000     0.05652     0.03259 =
      0.04704     0.00706     0.00300     0.01084
N2    3   0.383603   0.247125   0.375651    11.00000     0.06458     0.04115 =
      0.04731     0.00980     0.01583     0.01637
N3    3   0.627277   0.295895   0.216939    11.00000     0.04597     0.04375 =
      0.05530     0.01102     0.00936     0.00292
C1    1   0.295264   0.494002   0.270085    11.00000     0.05470     0.03486 =
      0.04870     0.00589     0.00350     0.01281
C45   1   0.116773   0.349145   0.082937    11.00000     0.07613     0.04665 =
      0.04102     0.00922     0.00370     0.01064
AFIX 43
H45   2   0.103775   0.280081   0.048208    11.00000    -1.20000
AFIX 0
C46   1   0.245949   0.449697   0.315966    11.00000     0.05425     0.04226 =
      0.04612     0.00510     0.00468     0.01572
AFIX 43
H46   2   0.156164   0.413279   0.304128    11.00000    -1.20000
AFIX 0
C47   1   0.328281   0.458355   0.380141    11.00000     0.05757     0.03542 =
      0.04243     0.00180     0.00678     0.01428
C2    1   0.194910   0.363059   0.149997    11.00000     0.05466     0.03823 =
      0.04512     0.01290     0.00589     0.00997
C3    1   0.570084  -0.144244   0.142326    11.00000     0.08448     0.03460 =
      0.05592     0.00662     0.02149     0.02620
C48   1   0.212155   0.472448   0.199022    11.00000     0.05143     0.03876 =
      0.04616     0.00933     0.00697     0.00580
C4    1   0.593773   0.187681   0.193016    11.00000     0.05122     0.04625 =
      0.05735     0.01242     0.01264     0.01274
C5    1   0.429270   0.550484   0.288818    11.00000     0.06313     0.03762 =
      0.06476     0.01400     0.00695     0.00459
AFIX 43
H5    2   0.463440   0.581509   0.258750    11.00000    -1.20000
AFIX 0
C6    1   0.273919   0.401651   0.425769    11.00000     0.06291     0.05056 =
      0.04111     0.00455     0.00648     0.01897
C7    1   0.219034   0.170865   0.115279    11.00000     0.07481     0.03817 =
      0.05026     0.00438    -0.00337     0.01359
AFIX 23
H7A   2   0.124575   0.160689   0.091926    11.00000    -1.20000
H7B   2   0.274005   0.173859   0.082035    11.00000    -1.20000
AFIX 0
C8    1   0.153929   0.558133   0.182937    11.00000     0.08104     0.04142 =
      0.06057     0.01417     0.00383     0.01576
AFIX 43
H8    2   0.165484   0.627850   0.216890    11.00000    -1.20000
AFIX 0
N4    3   0.529608  -0.061200   0.166059    11.00000     0.07289     0.05959 =
      0.06559     0.01654     0.01460     0.01237
C9    1   0.193617   0.450811   0.469627    11.00000     0.07237     0.07091 =
      0.05059     0.00619     0.01765     0.02968
AFIX 43
H9    2   0.171915   0.520245   0.470102    11.00000    -1.20000
AFIX 0
C10   1   0.460947   0.514886   0.396695    11.00000     0.06861     0.04508 =
      0.04924     0.00187    -0.00415     0.00885
AFIX 43
H10   2   0.516454   0.521840   0.439022    11.00000    -1.20000
AFIX 0
C11   1   0.736093   0.360742   0.198666    11.00000     0.06597     0.05840 =
      0.10104     0.01838     0.03429    -0.00404
C12   1   0.059691   0.435312   0.067969    10.78356     0.10006     0.06201 =
      0.05057     0.02330    -0.00609     0.01148
AFIX 43
H12   2   0.007126   0.421562   0.023839    10.78356    -1.20000
AFIX 0
C13   1   0.309391   0.294761   0.421939    11.00000     0.06347     0.04470 =
      0.04441     0.00733     0.01259     0.01144
C14   1   0.176330   0.296406   0.511354    11.00000     0.08380     0.08284 =
      0.05711     0.01351     0.02535     0.01360
AFIX 43
H14   2   0.143148   0.260357   0.539457    11.00000    -1.20000
AFIX 0
C15   1   0.689945   0.134925   0.365595    11.00000     0.06700     0.05753 =
      0.06260     0.02021    -0.00154     0.01163
AFIX 13
H15   2   0.704752   0.115713   0.408227    11.00000    -1.20000
AFIX 0
PART 1
C16   1   0.104077   0.020286   0.177922    21.00000     0.05122     0.07070 =
      0.08142     0.01904     0.00987     0.00310
AFIX 13
H16   2   0.120330  -0.048215   0.188096    21.00000    -1.20000
AFIX 0
PART 0
C17   1   0.513307   0.560869   0.353045    11.00000     0.06552     0.04486 =
      0.06514     0.00726    -0.00228    -0.00453
AFIX 43
H17   2   0.602723   0.598295   0.365533    11.00000    -1.20000
AFIX 0
C18   1   0.716319   0.264333   0.386517    10.78356     0.07309     0.06543 =
      0.07340     0.01480     0.00465     0.00129
AFIX 137
H18A  2   0.810488   0.292743   0.408435    10.78356    -1.50000
H18B  2   0.661123   0.294863   0.418142    10.78356    -1.50000
H18C  2   0.693713   0.285702   0.345958    10.78356    -1.50000
AFIX 0
C19   1   0.415912   0.138885   0.381278    11.00000     0.08112     0.04704 =
      0.04957     0.01578     0.02105     0.02291
AFIX 23
H19A  2   0.463896   0.151868   0.428465    11.00000    -1.20000
H19B  2   0.331134   0.088315   0.372658    11.00000    -1.20000
AFIX 0
C20   1   0.077873   0.540447   0.115953    11.00000     0.11065     0.05360 =
      0.06158     0.02338    -0.00084     0.02821
AFIX 43
H20   2   0.041090   0.598026   0.104511    11.00000    -1.20000
AFIX 0
C21   1   0.257433   0.245646   0.468256    10.78356     0.08450     0.06172 =
      0.05276     0.01701     0.02343     0.01618
AFIX 43
H21   2   0.279162   0.176883   0.469350    10.78356    -1.20000
AFIX 0
PART 1
C22   1   0.216753  -0.059312   0.057572    21.00000     0.07198     0.04526 =
      0.05628    -0.00066     0.00238     0.00408
AFIX 13
H22   2   0.132896  -0.053033   0.028326    21.00000    -1.20000
AFIX 0
PART 0
C23   1   0.144519   0.399672   0.512897    11.00000     0.07791     0.09289 =
      0.06301     0.01627     0.03136     0.03409
AFIX 43
H23   2   0.091354   0.434341   0.542262    11.00000    -1.20000
AFIX 0
C24   1   0.497449  -0.073238   0.321723    10.71849     0.10504     0.04222 =
      0.07586     0.02264     0.01704     0.02120
AFIX 13
H24   2   0.560045  -0.107550   0.294217    10.71849    -1.20000
AFIX 0
PART 1
C25   1   0.328607  -0.043568   0.017218    21.00000     0.07801     0.05740 =
      0.05751     0.00196     0.00859     0.00782
AFIX 137
H25A  2   0.309831  -0.103833  -0.026081    21.00000    -1.50000
H25B  2   0.415749  -0.043744   0.044207    21.00000    -1.50000
H25C  2   0.329137   0.026570   0.008672    21.00000    -1.50000
AFIX 0
PART 0
C26   1   0.359360  -0.142267   0.283450    10.78356     0.10492     0.05292 =
      0.10352     0.02595     0.01407    -0.00713
AFIX 137
H26A  2   0.356946  -0.217396   0.284598    10.78356    -1.50000
H26B  2   0.342416  -0.143769   0.236242    10.78356    -1.50000
H26C  2   0.290895  -0.109537   0.305169    10.78356    -1.50000
AFIX 0
C27   1   0.607263  -0.253330   0.114191    10.83298     0.10422     0.04976 =
      0.09208     0.00846     0.03239     0.03700
PART 1
C28   1   1.092045   0.715727   0.372803    51.00000     0.13789     0.08358 =
      0.10027     0.01323     0.00668     0.03190
AFIX 43
H28   2   1.101475   0.640838   0.362878    51.00000    -1.20000
AFIX 0
PART 0
C29   1   0.792130   0.087520   0.322693    10.78356     0.06217     0.11196 =
      0.11299     0.02992     0.00708     0.03654
AFIX 137
H29A  2   0.882697   0.124781   0.347293    10.78356    -1.50000
H29B  2   0.772363   0.099714   0.278888    10.78356    -1.50000
H29C  2   0.784960   0.008547   0.315183    10.78356    -1.50000
AFIX 0
PART 1
C30   1   0.193833  -0.177590   0.065331    21.00000     0.08921     0.04620 =
      0.06999     0.00206     0.00768     0.00605
AFIX 137
H30A  2   0.180508  -0.234085   0.020799    21.00000    -1.50000
H30B  2   0.114958  -0.186007   0.083988    21.00000    -1.50000
H30C  2   0.271902  -0.185606   0.095991    21.00000    -1.50000
AFIX 0
C31   1   0.858435   0.302960   0.191131    31.00000     0.06590     0.08707 =
      0.12551     0.03450     0.04318     0.00773
AFIX 137
H31A  2   0.925682   0.348425   0.179302    31.00000    -1.50000
H31B  2   0.830807   0.231289   0.155252    31.00000    -1.50000
H31C  2   0.896172   0.292631   0.234075    31.00000    -1.50000
AFIX 0
C32   1   0.101782   0.102771   0.244843    21.00000     0.06027     0.07908 =
      0.08016     0.01954     0.01590     0.00930
AFIX 137
H32A  2   0.024087   0.079208   0.260643    21.00000    -1.50000
H32B  2   0.096571   0.174649   0.239369    21.00000    -1.50000
H32C  2   0.183191   0.108247   0.278159    21.00000    -1.50000
AFIX 0
C33   1  -0.035553   0.004520   0.127240    21.00000     0.05690     0.09018 =
      0.09930     0.02571     0.01195     0.00740
AFIX 137
H33A  2  -0.107856  -0.009869   0.149149    21.00000    -1.50000
H33B  2  -0.042184  -0.057682   0.085970    21.00000    -1.50000
H33C  2  -0.042487   0.071416   0.115433    21.00000    -1.50000
AFIX 0
C34   1   1.057997   0.938523   0.405128    51.00000     0.13641     0.08201 =
      0.10379     0.00928    -0.00132     0.03148
AFIX 43
H34   2   1.047981   1.013292   0.415092    51.00000    -1.20000
AFIX 0
PART 0
C35   1   0.540474  -0.081067   0.394111    10.71849     0.17255     0.07654 =
      0.10164     0.05352     0.00865     0.02524
AFIX 137
H35A  2   0.529118  -0.158443   0.391305    10.71849    -1.50000
H35B  2   0.485189  -0.042724   0.423242    10.71849    -1.50000
H35C  2   0.634157  -0.046955   0.413283    10.71849    -1.50000
AFIX 0
PART 1
C36   1   0.770117   0.478304   0.248800    31.00000     0.09386     0.07228 =
      0.12239     0.02285     0.04340    -0.00342
AFIX 137
H36A  2   0.840739   0.520539   0.237026    31.00000    -1.50000
H36B  2   0.800640   0.476664   0.294859    31.00000    -1.50000
H36C  2   0.690744   0.512937   0.246595    31.00000    -1.50000
AFIX 0
C37   1   0.648953  -0.255109   0.047328    41.00000     0.10543     0.08004 =
      0.09561     0.01466     0.03649     0.03310
AFIX 137
H37A  2   0.674634  -0.326047   0.026602    41.00000    -1.50000
H37B  2   0.724583  -0.195967   0.057152    41.00000    -1.50000
H37C  2   0.573987  -0.244437   0.015978    41.00000    -1.50000
AFIX 0
C38   1   0.679232   0.370236   0.126239    31.00000     0.08856     0.08376 =
      0.10930     0.03338     0.03748     0.00082
AFIX 137
H38A  2   0.748527   0.412146   0.113441    31.00000    -1.50000
H38B  2   0.602315   0.407900   0.128190    31.00000    -1.50000
H38C  2   0.651849   0.296507   0.092498    31.00000    -1.50000
AFIX 0
C39   1   1.147519   0.905042   0.450796    51.00000     0.14131     0.08917 =
      0.10316     0.01493     0.00242     0.03417
AFIX 43
H39   2   1.196241   0.957464   0.492513    51.00000    -1.20000
AFIX 0
C40   1   1.005473   0.747526   0.325572    51.00000     0.13785     0.08639 =
      0.10664     0.01253     0.00490     0.03348
AFIX 43
H40   2   0.962718   0.696331   0.282294    51.00000    -1.20000
AFIX 0
C41   1   0.480842  -0.348028   0.096355    41.00000     0.12344     0.05258 =
      0.11110     0.01276     0.03910     0.02628
AFIX 137
H41A  2   0.506227  -0.419873   0.077788    41.00000    -1.50000
H41B  2   0.409844  -0.337682   0.062754    41.00000    -1.50000
H41C  2   0.449023  -0.344531   0.137598    41.00000    -1.50000
AFIX 0
C42   1   0.983928   0.857632   0.344296    51.00000     0.13957     0.08533 =
      0.10462     0.01002     0.00193     0.03366
AFIX 43
H42   2   0.918006   0.877798   0.315271    51.00000    -1.20000
AFIX 0
C43   1   1.164657   0.793847   0.434527    51.00000     0.14248     0.09076 =
      0.10368     0.01832     0.00747     0.03506
AFIX 43
H43   2   1.225034   0.771969   0.465194    51.00000    -1.20000
AFIX 0
C44   1   0.715017  -0.265222   0.171540    41.00000     0.11941     0.08125 =
      0.10333     0.02940     0.03338     0.04935
AFIX 137
H44A  2   0.743544  -0.336439   0.155651    41.00000    -1.50000
H44B  2   0.677715  -0.260626   0.211383    41.00000    -1.50000
H44C  2   0.791687  -0.206094   0.183721    41.00000    -1.50000
AFIX 0
PART 2
C22B  1   0.248299  -0.043630   0.054057   -21.00000     0.07385     0.04551 =
      0.05606     0.00041     0.00524     0.00488
AFIX 13
H22B  2   0.177595  -0.025079   0.022645   -21.00000    -1.20000
AFIX 0
C25B  1   0.375819  -0.020187   0.026441   -21.00000     0.07495     0.05018 =
      0.05571    -0.00070     0.00602     0.00382
AFIX 137
PART 0
H0    2   0.367228  -0.074037  -0.018595    10.22013    -1.50000
H1    2   0.454882  -0.025918   0.057441    10.22013    -1.50000
H2    2   0.384660   0.053975   0.023301    10.22013    -1.50000
AFIX 0
PART 2
C30B  1   0.213459  -0.167625   0.048097   -21.00000     0.07725     0.04618 =
      0.05792     0.00017     0.00592     0.00426
AFIX 137
PART 0
H3    2   0.217605  -0.214481   0.002836    10.21978    -1.50000
H4    2   0.123483  -0.182484   0.055288    10.21978    -1.50000
H6    2   0.277553  -0.183268   0.082448    10.21978    -1.50000
AFIX 0
PART 2
C16B  1   0.107047  -0.006510   0.169270   -21.00000     0.05566     0.07171 =
      0.08147     0.01853     0.01140     0.00600
C33B  1  -0.027585  -0.052471   0.114573   -21.00000     0.05696     0.07927 =
      0.09254     0.02293     0.01234     0.00671
AFIX 137
PART 0
H7    2  -0.095774  -0.080188   0.134783    10.21317    -1.50000
HA    2  -0.014573  -0.112335   0.076291    10.21317    -1.50000
HB    2  -0.056353   0.006453   0.098541    10.21317    -1.50000
AFIX 0
PART 2
C32B  1   0.096658   0.022596   0.244412   -21.00000     0.06001     0.08125 =
      0.08501     0.02318     0.01388     0.00771
AFIX 137
PART 0
HC    2   0.013592  -0.018234   0.246980    10.21591    -1.50000
HD    2   0.097331   0.101635   0.263486    10.21591    -1.50000
HE    2   0.172485   0.002783   0.270262    10.21591    -1.50000
AFIX 0
PART 2
C36B  1   0.839019   0.423412   0.267585   -31.00000     0.07568     0.07458 =
      0.11845     0.02676     0.03979    -0.00136
AFIX 137
PART 0
HF    2   0.912957   0.467538   0.259299    10.16897    -1.50000
HG    2   0.873255   0.370100   0.287501    10.16897    -1.50000
HH    2   0.795019   0.471673   0.298926    10.16897    -1.50000
AFIX 0
PART 2
C38B  1   0.668643   0.453475   0.181853   -31.00000     0.08345     0.07241 =
      0.11242     0.02661     0.03919    -0.00136
AFIX 137
PART 0
HI    2   0.732234   0.500819   0.169174    10.16876    -1.50000
HJ    2   0.640225   0.497277   0.221746    10.16876    -1.50000
HK    2   0.590959   0.420775   0.144042    10.16876    -1.50000
AFIX 0
PART 2
C31B  1   0.804843   0.292258   0.145317   -31.00000     0.07458     0.07898 =
      0.11248     0.02983     0.04025     0.00221
AFIX 137
PART 0
HL    2   0.873572   0.341169   0.136813    10.16523    -1.50000
HM    2   0.738592   0.253716   0.103004    10.16523    -1.50000
HN    2   0.845896   0.238526   0.162355    10.16523    -1.50000
AFIX 0
PART 2
C44B  1   0.753398  -0.254469   0.150512   -41.00000     0.10944     0.07091 =
      0.09725     0.02269     0.03295     0.04473
AFIX 137
PART 0
HO    2   0.776508  -0.327055   0.131382    10.27064    -1.50000
HP    2   0.758953  -0.238439   0.199190    10.27064    -1.50000
HQ    2   0.815608  -0.198621   0.143551    10.27064    -1.50000
AFIX 0
PART 2
C37B  1   0.577391  -0.281210   0.035556   -41.00000     0.10809     0.07199 =
      0.09558     0.01304     0.03666     0.03574
AFIX 137
PART 0
HR    2   0.600546  -0.353106   0.014566    10.27068    -1.50000
HS    2   0.630357  -0.224938   0.024178    10.27068    -1.50000
HT    2   0.482522  -0.283084   0.018572    10.27068    -1.50000
AFIX 0
PART 2
C41B  1   0.507482  -0.330046   0.135621   -41.00000     0.11883     0.04884 =
      0.10207     0.01182     0.03623     0.03013
AFIX 137
PART 0
HU    2   0.523162  -0.405826   0.119397    10.27132    -1.50000
HV    2   0.415790  -0.326836   0.115625    10.27132    -1.50000
HW    2   0.521496  -0.305142   0.185156    10.27132    -1.50000
AFIX 0
PART 2
C28B  1   1.180369   0.743365   0.406254   -51.00000     0.14034     0.08313 =
      0.09910     0.01230     0.00636     0.03196
AFIX 43
H28B  2   1.242417   0.697129   0.413468   -51.00000    -1.20000
AFIX 0
C43B  1   1.204640   0.855662   0.447505   -51.00000     0.14269     0.08634 =
      0.10113     0.01362     0.00599     0.03348
AFIX 43
H43B  2   1.282576   0.882726   0.482891   -51.00000    -1.20000
AFIX 0
C39B  1   1.116768   0.928933   0.437814   -51.00000     0.14180     0.08773 =
      0.10513     0.01457     0.00432     0.03402
AFIX 43
H39B  2   1.133562   1.003584   0.466102   -51.00000    -1.20000
AFIX 0
C34B  1   1.002649   0.885052   0.383769   -51.00000     0.14060     0.08828 =
      0.10591     0.01408     0.00374     0.03453
AFIX 43
H34B  2   0.947260   0.932964   0.371838   -51.00000    -1.20000
AFIX 0
C42B  1   0.969869   0.770757   0.347233   -51.00000     0.13967     0.08794 =
      0.10405     0.01316     0.00503     0.03323
AFIX 43
H42B  2   0.884718   0.740915   0.317772   -51.00000    -1.20000
AFIX 0
C40B  1   1.063246   0.700964   0.354416   -51.00000     0.13846     0.08559 =
      0.10155     0.01356     0.00521     0.03208
AFIX 43
H40B  2   1.047527   0.627081   0.324983   -51.00000    -1.20000
AFIX 0
PART 0
HKLF 4
END
