TITL CrystalPilot n0088 in P -1
REM CrystalPilot node n0088 tool=run_shelxl
REM R1 = 0.072 wR2 = 0.221 GooF = 1.084
CELL 0.71073 10.15540 12.70750 20.80080 107.6910 100.3150 96.2330
ZERR 2 0.00170 0.00210 0.00440 0.0030 0.0030 0.0020
LATT 1
SFAC C H N P Ni La
UNIT 96.0 40.0 8.0 4.0 2.0 2.0

DFIX 1.3900 0.010 C28 C40
DFIX 1.3900 0.010 C40 C42
DFIX 1.3900 0.010 C42 C34
DFIX 1.3900 0.010 C34 C39
DFIX 1.3900 0.010 C39 C43
DFIX 1.3900 0.010 C43 C28
DFIX 1.3900 0.010 C28B C40B
DFIX 1.3900 0.010 C40B C42B
DFIX 1.3900 0.010 C42B C34B
DFIX 1.3900 0.010 C34B C39B
DFIX 1.3900 0.010 C39B C43B
DFIX 1.3900 0.010 C43B C28B
FLAT 0.01 C28 C40 C42 C34 C39 C43
FLAT 0.01 C28B C40B C42B C34B C39B C43B
SADI 0.020 P1 C22 P1 C16 P1 C22B P1 C16B
SADI 0.020 C22 C25 C22 C30 C16 C33 C16 C32 C22B C25B C22B C30B C16B C33B =
 C16B C32B
SIMU 0.010 0.020 P1 C22 C25 C30 C16 C33 C32 C22B C25B C30B C16B C33B C32B
SADI 0.020 C11 C36 C11 C38 C11 C31 C11 C36B C11 C38B C11 C31B
SIMU 0.010 0.020 C11 C36 C38 C31 C36B C38B C31B
SADI 0.020 C27 C44 C27 C37 C27 C41 C27 C44B C27 C37B C27 C41B
SIMU 0.010 0.020 C27 C44 C37 C41 C44B C37B C41B
SIMU 0.010 0.020 C28 C40 C42 C34 C39 C43 C28B C40B C42B C34B C39B C43B

WGHT 0.082660 10.758620
FVAR 0.18872 0.41048 0.70660 0.50412 0.73307
LA1   6   0.429126   0.291533   0.269803    11.00000     0.04331     0.03292 =
      0.04283     0.00575     0.00736     0.00972
NI1   5   0.466906   0.070231   0.207484    11.00000     0.04976     0.03169 =
      0.04615     0.00548     0.01015     0.01108
P1    4   0.260951   0.052371   0.145808    11.00000     0.05149     0.03281 =
      0.04663     0.00315     0.00507     0.00662
P2    4   0.511679   0.071698   0.315002    11.00000     0.05946     0.03543 =
      0.04863     0.00985     0.00953     0.01463
N1    3   0.251806   0.281062   0.169982    11.00000     0.05687     0.03216 =
      0.04708     0.00665     0.00294     0.01078
N2    3   0.383187   0.246819   0.375690    11.00000     0.06519     0.04149 =
      0.04646     0.00911     0.01580     0.01659
N3    3   0.627554   0.295779   0.216979    11.00000     0.04695     0.04314 =
      0.05377     0.01060     0.00881     0.00277
C1    1   0.295241   0.493767   0.270077    11.00000     0.05395     0.03480 =
      0.04957     0.00627     0.00368     0.01276
N4    1   0.116841   0.349068   0.082987    11.00000     0.07585     0.04575 =
      0.04113     0.00944     0.00328     0.01055
AFIX 43
HN4   2   0.103507   0.279812   0.048399    11.00000    -1.20000
AFIX 0
N5    1   0.246000   0.449691   0.316131    11.00000     0.05277     0.04105 =
      0.04664     0.00562     0.00472     0.01435
N6    1   0.328109   0.458237   0.380075    11.00000     0.05733     0.03542 =
      0.04154     0.00167     0.00696     0.01407
C2    1   0.195041   0.363069   0.149793    11.00000     0.05441     0.03753 =
      0.04577     0.01311     0.00496     0.00965
C3    1   0.570086  -0.144191   0.142383    11.00000     0.08384     0.03404 =
      0.05614     0.00690     0.02133     0.02643
N7    1   0.212098   0.472551   0.199238    11.00000     0.05232     0.03796 =
      0.04559     0.00897     0.00694     0.00607
C4    1   0.594065   0.187688   0.193016    11.00000     0.05270     0.04590 =
      0.05723     0.01273     0.01265     0.01220
C5    1   0.429404   0.550419   0.288827    11.00000     0.06281     0.03764 =
      0.06456     0.01438     0.00696     0.00450
C6    1   0.273774   0.401458   0.425747    11.00000     0.06370     0.04932 =
      0.04111     0.00412     0.00624     0.01998
C7    1   0.218472   0.171041   0.115423    11.00000     0.07526     0.03790 =
      0.05118     0.00517    -0.00388     0.01479
C8    1   0.154050   0.558112   0.182949    11.00000     0.08027     0.04152 =
      0.06010     0.01426     0.00359     0.01502
AFIX 43
H8    2   0.165685   0.627868   0.216874    11.00000    -1.20000
AFIX 0
N8    3   0.529360  -0.060908   0.166222    11.00000     0.07196     0.05872 =
      0.06480     0.01741     0.01337     0.01160
C9    1   0.193681   0.451096   0.469664    11.00000     0.07282     0.07244 =
      0.05040     0.00639     0.01823     0.03036
AFIX 43
H9    2   0.172192   0.520643   0.470272    11.00000    -1.20000
AFIX 0
C10   1   0.460478   0.514946   0.396671    11.00000     0.06897     0.04537 =
      0.04839     0.00176    -0.00412     0.00912
C11   1   0.736031   0.360999   0.198731    11.00000     0.06442     0.05919 =
      0.08141     0.02348     0.02874     0.00635
C12   1   0.059902   0.435022   0.067698    11.00000     0.10238     0.06194 =
      0.04989     0.02278    -0.00475     0.01369
AFIX 43
H12   2   0.007695   0.421197   0.023479    11.00000    -1.20000
AFIX 0
C13   1   0.309446   0.294756   0.421966    11.00000     0.06284     0.04468 =
      0.04483     0.00819     0.01277     0.01152
C14   1   0.175868   0.296267   0.511430    11.00000     0.08329     0.08317 =
      0.05823     0.01400     0.02549     0.01254
AFIX 43
H14   2   0.142136   0.260101   0.539343    11.00000    -1.20000
AFIX 0
C15   1   0.690078   0.134873   0.365412    11.00000     0.06642     0.05804 =
      0.06156     0.02021    -0.00198     0.01099
PART 1
C16   1   0.098799   0.027837   0.174997    21.00000     0.05872
PART 0
C17   1   0.513516   0.560790   0.352949    11.00000     0.06313     0.04494 =
      0.06505     0.00750    -0.00234    -0.00445
C18   1   0.716163   0.264172   0.386586    11.00000     0.07319     0.06684 =
      0.07333     0.01625     0.00428     0.00236
AFIX 137
H18A  2   0.808271   0.293084   0.412187    11.00000    -1.50000
H18B  2   0.655123   0.294037   0.414919    11.00000    -1.50000
H18C  2   0.701301   0.285724   0.345807    11.00000    -1.50000
AFIX 0
C19   1   0.415927   0.138901   0.381339    11.00000     0.08006     0.04738 =
      0.04899     0.01603     0.02016     0.02226
C20   1   0.078006   0.540633   0.115900    11.00000     0.11083     0.05352 =
      0.06092     0.02320    -0.00244     0.02744
AFIX 43
H20   2   0.041249   0.598242   0.104483    11.00000    -1.20000
AFIX 0
C21   1   0.257972   0.245468   0.468286    11.00000     0.08433     0.06163 =
      0.05144     0.01633     0.02215     0.01551
AFIX 43
H21   2   0.280300   0.176947   0.469547    11.00000    -1.20000
AFIX 0
PART 1
C22   1   0.203583  -0.065951   0.061545    21.00000     0.05076
PART 0
C23   1   0.144650   0.399312   0.512879    11.00000     0.07774     0.09294 =
      0.06189     0.01687     0.03210     0.03411
AFIX 43
H23   2   0.091554   0.433977   0.542287    11.00000    -1.20000
AFIX 0
C24   1   0.497604  -0.073415   0.321711    11.00000     0.10652     0.04178 =
      0.07672     0.02381     0.01533     0.01969
PART 1
C25   1   0.312609  -0.049240   0.019213    21.00000     0.06091
PART 0
C26   1   0.359835  -0.142418   0.283545    11.00000     0.10786     0.05284 =
      0.10004     0.02427     0.01471    -0.00539
AFIX 137
H26A  2   0.355192  -0.215846   0.287722    11.00000    -1.50000
H26B  2   0.345705  -0.148740   0.235539    11.00000    -1.50000
H26C  2   0.290813  -0.106642   0.303052    11.00000    -1.50000
AFIX 0
C27   1   0.606472  -0.253885   0.114198    11.00000     0.08977     0.05173 =
      0.08645     0.01434     0.02897     0.03716
PART 1
C28   1   1.094708   0.716188   0.372216    51.00000     0.10908
PART 0
C29   1   0.792072   0.087478   0.322945    11.00000     0.06114     0.11262 =
      0.10850     0.03253     0.00929     0.03534
AFIX 137
H29A  2   0.882925   0.120367   0.349228    11.00000    -1.50000
H29B  2   0.777295   0.104840   0.280688    11.00000    -1.50000
H29C  2   0.779791   0.007583   0.312356    11.00000    -1.50000
AFIX 0
PART 1
C30   1   0.172510  -0.180854   0.073295    21.00000     0.07267
C31   1   0.866800   0.307614   0.200409    31.00000     0.09414
C32   1   0.101596   0.121194   0.242678    21.00000     0.07496
C33   1  -0.036566   0.022200   0.123714    21.00000     0.07841
C34   1   1.056874   0.938933   0.405169    51.00000     0.11273
PART 0
C35   1   0.540847  -0.080973   0.394389    11.00000     0.17268     0.07348 =
      0.10058     0.05147     0.00889     0.02477
AFIX 137
H35A  2   0.529538  -0.158297   0.391699    11.00000    -1.50000
H35B  2   0.485573  -0.042540   0.423492    11.00000    -1.50000
H35C  2   0.634527  -0.046817   0.413518    11.00000    -1.50000
AFIX 0
PART 1
C36   1   0.770958   0.482155   0.249479    31.00000     0.09281
C37   1   0.661300  -0.250912   0.050613    41.00000     0.09287
C38   1   0.678676   0.369904   0.126489    31.00000     0.08453
C39   1   1.144258   0.906687   0.452445    51.00000     0.11692
C40   1   1.008095   0.749342   0.325616    51.00000     0.11278
C41   1   0.474298  -0.346042   0.088186    41.00000     0.08750
C42   1   0.989574   0.860248   0.342228    51.00000     0.11811
C43   1   1.161723   0.795210   0.435130    51.00000     0.11713
C44   1   0.699782  -0.274325   0.174333    41.00000     0.09501
PART 2
C22B  1   0.233984  -0.050917   0.054087   -21.00000     0.05204
C25B  1   0.352881  -0.032946   0.018652   -21.00000     0.07064
C30B  1   0.207927  -0.173308   0.056610   -21.00000     0.05838
C16B  1   0.109593   0.005591   0.177318   -21.00000     0.06310
C33B  1  -0.034325  -0.018077   0.128872   -21.00000     0.09052
C32B  1   0.100587   0.088091   0.246965   -21.00000     0.08008
C36B  1   0.814718   0.449752   0.270045   -31.00000     0.07947
C38B  1   0.700583   0.482366   0.219647   -31.00000     0.08496
C31B  1   0.841521   0.293015   0.169485   -31.00000     0.05465
C44B  1   0.744645  -0.255352   0.159648   -41.00000     0.08846
C37B  1   0.611749  -0.266111   0.038995   -41.00000     0.09930
C41B  1   0.495252  -0.343224   0.119414   -41.00000     0.08640
C28B  1   1.186962   0.746903   0.407712   -51.00000     0.11016
C43B  1   1.211924   0.861838   0.443346   -51.00000     0.11440
C39B  1   1.110218   0.922434   0.429787   -51.00000     0.11895
C34B  1   0.987813   0.870211   0.382414   -51.00000     0.11711
C42B  1   0.956590   0.756025   0.345274   -51.00000     0.11378
C40B  1   1.062569   0.702012   0.361610   -51.00000     0.10982
PART 0
HKLF 4
END
