TITL CrystalPilot n0089 in P -1
REM CrystalPilot node n0089 tool=refine
REM R1 = 0.0701 wR2 = 0.2187 GooF = 1.078
CELL 0.71073 10.15540 12.70750 20.80080 107.6910 100.3150 96.2330
ZERR 2 0.00170 0.00210 0.00440 0.0030 0.0030 0.0020
LATT 1
SFAC C H N P Ni La
UNIT 96.0 40.0 8.0 4.0 2.0 2.0

DFIX 1.3900 0.010 C28 C40
DFIX 1.3900 0.010 C40 C42
DFIX 1.3900 0.010 C42 C34
DFIX 1.3900 0.010 C34 C39
DFIX 1.3900 0.010 C39 C43
DFIX 1.3900 0.010 C43 C28
DFIX 1.3900 0.010 C28B C40B
DFIX 1.3900 0.010 C40B C42B
DFIX 1.3900 0.010 C42B C34B
DFIX 1.3900 0.010 C34B C39B
DFIX 1.3900 0.010 C39B C43B
DFIX 1.3900 0.010 C43B C28B
FLAT 0.01 C28 C40 C42 C34 C39 C43
FLAT 0.01 C28B C40B C42B C34B C39B C43B
SADI 0.020 P1 C22 P1 C16 P1 C22B P1 C16B
SADI 0.020 C22 C25 C22 C30 C16 C33 C16 C32 C22B C25B C22B C30B C16B C33B =
 C16B C32B
SIMU 0.010 0.020 P1 C22 C25 C30 C16 C33 C32 C22B C25B C30B C16B C33B C32B
SADI 0.020 C11 C36 C11 C38 C11 C31 C11 C36B C11 C38B C11 C31B
SIMU 0.010 0.020 C11 C36 C38 C31 C36B C38B C31B
SADI 0.020 C27 C44 C27 C37 C27 C41 C27 C44B C27 C37B C27 C41B
SIMU 0.010 0.020 C27 C44 C37 C41 C44B C37B C41B
SIMU 0.010 0.020 C28 C40 C42 C34 C39 C43 C28B C40B C42B C34B C39B C43B

WGHT 0.082660 10.758620
FVAR 0.18992 0.41048 0.70660 0.50412 0.73307
LA1   6   0.429126   0.291533   0.269799    11.00000     0.04315     0.03269 =
      0.04262     0.00566     0.00731     0.00967
NI1   5   0.466899   0.070220   0.207489    11.00000     0.04987     0.03171 =
      0.04635     0.00544     0.01016     0.01107
P1    4   0.260820   0.052371   0.145815    11.00000     0.05172     0.03282 =
      0.04711     0.00298     0.00500     0.00633
P2    4   0.511679   0.071685   0.314991    11.00000     0.06009     0.03562 =
      0.04889     0.00979     0.00949     0.01490
N1    3   0.251786   0.281143   0.169971    11.00000     0.05742     0.03231 =
      0.04679     0.00651     0.00332     0.01121
N2    3   0.383161   0.246748   0.375589    11.00000     0.06514     0.04081 =
      0.04697     0.00942     0.01577     0.01653
N3    3   0.627261   0.295964   0.216886    11.00000     0.04579     0.04322 =
      0.05440     0.01037     0.00929     0.00267
C1    1   0.295078   0.493732   0.270036    11.00000     0.05470     0.03475 =
      0.04913     0.00579     0.00380     0.01278
N4    1   0.116879   0.349053   0.082894    11.00000     0.07568     0.04644 =
      0.04131     0.00957     0.00337     0.00986
AFIX 43
HN4   2   0.103812   0.279933   0.048208    11.00000    -1.20000
AFIX 0
N5    1   0.245318   0.449471   0.316067    11.00000     0.05745     0.04117 =
      0.04508     0.00542     0.00523     0.01714
N6    1   0.328125   0.458327   0.380101    11.00000     0.05770     0.03581 =
      0.04215     0.00169     0.00695     0.01444
C2    1   0.195009   0.362958   0.149804    11.00000     0.05449     0.03835 =
      0.04559     0.01316     0.00529     0.00980
C3    1   0.570004  -0.144096   0.142370    11.00000     0.08416     0.03400 =
      0.05559     0.00613     0.02051     0.02607
N7    1   0.212045   0.472464   0.199206    11.00000     0.05183     0.03823 =
      0.04653     0.00949     0.00669     0.00568
C4    1   0.594007   0.187701   0.193034    11.00000     0.05227     0.04629 =
      0.05765     0.01247     0.01271     0.01273
C5    1   0.429712   0.550845   0.288500    11.00000     0.06320     0.03736 =
      0.06586     0.01193     0.00508     0.00552
C6    1   0.273735   0.401657   0.425719    11.00000     0.06383     0.05027 =
      0.04150     0.00435     0.00640     0.01993
C7    1   0.218513   0.170902   0.115410    11.00000     0.07541     0.03810 =
      0.05155     0.00448    -0.00400     0.01427
C8    1   0.153649   0.558093   0.183037    11.00000     0.08070     0.04203 =
      0.06146     0.01487     0.00398     0.01581
AFIX 43
H8    2   0.164921   0.627797   0.216967    11.00000    -1.20000
AFIX 0
N8    3   0.529264  -0.061091   0.166154    11.00000     0.07315     0.05930 =
      0.06645     0.01833     0.01382     0.01229
C9    1   0.193496   0.451051   0.469644    11.00000     0.07293     0.07162 =
      0.04980     0.00606     0.01762     0.03071
AFIX 43
H9    2   0.171922   0.520570   0.470242    11.00000    -1.20000
AFIX 0
C10   1   0.460828   0.514906   0.397154    11.00000     0.06863     0.04385 =
      0.05064     0.00196    -0.00259     0.00868
C11   1   0.735828   0.360941   0.198520    11.00000     0.06176     0.05873 =
      0.09465     0.02001     0.02754    -0.00057
C12   1   0.059858   0.434905   0.067831    11.00000     0.10046     0.06187 =
      0.05075     0.02328    -0.00533     0.01163
AFIX 43
H12   2   0.007481   0.421161   0.023660    11.00000    -1.20000
AFIX 0
C13   1   0.309553   0.294554   0.421893    11.00000     0.06297     0.04438 =
      0.04559     0.00796     0.01325     0.01118
C14   1   0.175782   0.296398   0.511396    11.00000     0.08567     0.08217 =
      0.05816     0.01382     0.02648     0.01279
AFIX 43
H14   2   0.141838   0.260256   0.539267    11.00000    -1.20000
AFIX 0
C15   1   0.690014   0.134804   0.365384    11.00000     0.06658     0.05803 =
      0.06226     0.02036    -0.00173     0.01165
PART 1
C16   1   0.098882   0.027925   0.175242    21.00000     0.05342     0.06201 =
      0.08234     0.02465     0.00925     0.00643
PART 0
C17   1   0.514080   0.561133   0.353163    11.00000     0.06696     0.04501 =
      0.06414     0.00724    -0.00261    -0.00214
C18   1   0.716453   0.263996   0.386537    11.00000     0.07342     0.06621 =
      0.07351     0.01558     0.00471     0.00186
AFIX 137
H18A  2   0.652705   0.293824   0.413076    11.00000    -1.50000
H18B  2   0.807263   0.292970   0.413956    11.00000    -1.50000
H18C  2   0.705831   0.285522   0.345733    11.00000    -1.50000
AFIX 0
C19   1   0.415760   0.138852   0.381319    11.00000     0.08035     0.04653 =
      0.04938     0.01557     0.02025     0.02224
C20   1   0.077919   0.540240   0.116016    11.00000     0.11153     0.05308 =
      0.06079     0.02274    -0.00072     0.02835
AFIX 43
H20   2   0.041114   0.597786   0.104541    11.00000    -1.20000
AFIX 0
C21   1   0.258236   0.245363   0.468446    11.00000     0.08388     0.06167 =
      0.05280     0.01689     0.02319     0.01584
AFIX 43
H21   2   0.280860   0.177042   0.469960    11.00000    -1.20000
AFIX 0
PART 1
C22   1   0.203656  -0.065408   0.061195    21.00000     0.06244     0.04479 =
      0.05624     0.00350     0.01096     0.00177
PART 0
C23   1   0.144413   0.399416   0.512830    11.00000     0.07731     0.09169 =
      0.06342     0.01596     0.03209     0.03432
AFIX 43
H23   2   0.091232   0.434060   0.542194    11.00000    -1.20000
AFIX 0
C24   1   0.497826  -0.073527   0.321662    11.00000     0.10662     0.04176 =
      0.07753     0.02419     0.01574     0.02002
PART 1
C25   1   0.312593  -0.049577   0.019160    21.00000     0.06222     0.05196 =
      0.05890     0.00569     0.01286     0.00175
PART 0
C26   1   0.359899  -0.142386   0.283460    11.00000     0.11222     0.05264 =
      0.10051     0.02426     0.01518    -0.00651
AFIX 137
H26A  2   0.337349  -0.135066   0.238367    11.00000    -1.50000
H26B  2   0.361418  -0.219736   0.278786    11.00000    -1.50000
H26C  2   0.293079  -0.116214   0.308893    11.00000    -1.50000
AFIX 0
C27   1   0.606841  -0.253653   0.114108    11.00000     0.10331     0.05142 =
      0.09047     0.01242     0.03191     0.03666
PART 1
C28   1   1.094776   0.716319   0.372187    51.00000     0.13016     0.09115 =
      0.10911     0.02106     0.01232     0.03199
PART 0
C29   1   0.791658   0.087618   0.323155    11.00000     0.06202     0.11568 =
      0.11539     0.03321     0.00784     0.03771
AFIX 137
H29A  2   0.775403   0.007282   0.309943    11.00000    -1.50000
H29B  2   0.780993   0.109241   0.282385    11.00000    -1.50000
H29C  2   0.882425   0.116689   0.350609    11.00000    -1.50000
AFIX 0
PART 1
C30   1   0.172645  -0.180550   0.073042    21.00000     0.07607     0.04541 =
      0.06381     0.00495     0.01643     0.00348
C31   1   0.866110   0.307578   0.199860    31.00000     0.06368     0.09556 =
      0.11680     0.03717     0.03683     0.01237
C32   1   0.101718   0.121310   0.242195    21.00000     0.06354     0.06782 =
      0.08342     0.02598     0.01473     0.00892
C33   1  -0.036477   0.022791   0.123185    21.00000     0.05539     0.06955 =
      0.09361     0.03114     0.01048     0.00654
C34   1   1.056715   0.938917   0.405291    51.00000     0.12793     0.08974 =
      0.10939     0.01774     0.00376     0.03226
PART 0
C35   1   0.540946  -0.081015   0.394278    11.00000     0.17576     0.07624 =
      0.10071     0.05327     0.00709     0.02468
AFIX 137
H35A  2   0.629052  -0.035981   0.416489    11.00000    -1.50000
H35B  2   0.476249  -0.054120   0.421002    11.00000    -1.50000
H35C  2   0.544588  -0.157642   0.390896    11.00000    -1.50000
AFIX 0
PART 1
C36   1   0.771149   0.482069   0.249362    31.00000     0.08286     0.07255 =
      0.11245     0.02789     0.02883     0.00273
C37   1   0.661499  -0.251026   0.050717    41.00000     0.10475     0.08377 =
      0.09537     0.01962     0.03438     0.03616
C38   1   0.678319   0.369931   0.126055    31.00000     0.08222     0.07671 =
      0.09546     0.03283     0.02981     0.00107
C39   1   1.144318   0.906606   0.452254    51.00000     0.13261     0.09725 =
      0.10643     0.02145     0.00616     0.03341
C40   1   1.008367   0.749425   0.325568    51.00000     0.12850     0.09535 =
      0.11257     0.02080     0.00981     0.03228
C41   1   0.474180  -0.346316   0.087940    41.00000     0.12076     0.05667 =
      0.09690     0.01746     0.03527     0.02902
C42   1   0.989335   0.860100   0.342544    51.00000     0.13201     0.09562 =
      0.11053     0.01991     0.00805     0.03431
C43   1   1.161501   0.795297   0.435092    51.00000     0.13357     0.09874 =
      0.10933     0.02584     0.01160     0.03488
C44   1   0.699818  -0.274135   0.174098    41.00000     0.11253     0.07429 =
      0.10232     0.03063     0.03442     0.04304
PART 2
C22B  1   0.233623  -0.050838   0.054336   -21.00000     0.06438     0.04226 =
      0.05242     0.00176     0.00996     0.00140
C25B  1   0.352874  -0.032646   0.019022   -21.00000     0.07182     0.05734 =
      0.05957     0.00793     0.02012     0.00638
C30B  1   0.208273  -0.173430   0.056415   -21.00000     0.06619     0.04296 =
      0.05960     0.00109     0.01500     0.00068
C16B  1   0.109417   0.006419   0.177221   -21.00000     0.05307     0.06355 =
      0.08315     0.02465     0.00844     0.00546
C33B  1  -0.034280  -0.018261   0.128283   -21.00000     0.05869     0.07512 =
      0.09846     0.03272     0.00973     0.00731
C32B  1   0.100727   0.087645   0.246725   -21.00000     0.06746     0.07059 =
      0.08651     0.02767     0.01601     0.01260
C36B  1   0.814901   0.449663   0.270323   -31.00000     0.07698     0.06900 =
      0.10960     0.02678     0.02945     0.00177
C38B  1   0.700289   0.482640   0.219582   -31.00000     0.08066     0.07480 =
      0.10896     0.03103     0.03034     0.00426
C31B  1   0.841129   0.292850   0.169176   -31.00000     0.05445     0.07899 =
      0.09665     0.02541     0.03008     0.00635
C44B  1   0.744835  -0.255198   0.159370   -41.00000     0.10727     0.07455 =
      0.10049     0.03072     0.03259     0.04226
C37B  1   0.611859  -0.265807   0.039206   -41.00000     0.10987     0.08252 =
      0.09675     0.01869     0.03688     0.03675
C41B  1   0.495067  -0.343079   0.119513   -41.00000     0.12044     0.05552 =
      0.09958     0.02240     0.03481     0.02895
C28B  1   1.186887   0.746999   0.407605   -51.00000     0.13197     0.09222 =
      0.10660     0.02099     0.01129     0.03244
C43B  1   1.211591   0.861793   0.443830   -51.00000     0.13358     0.09553 =
      0.10682     0.02157     0.01012     0.03299
C39B  1   1.110181   0.922423   0.429750   -51.00000     0.13306     0.09544 =
      0.10989     0.02161     0.00867     0.03369
C34B  1   0.988118   0.870389   0.382145   -51.00000     0.13205     0.09592 =
      0.11053     0.02188     0.00878     0.03399
C42B  1   0.956606   0.756150   0.345362   -51.00000     0.13169     0.09607 =
      0.11041     0.02150     0.01071     0.03335
C40B  1   1.062780   0.702045   0.361203   -51.00000     0.13007     0.09368 =
      0.10836     0.02130     0.01050     0.03220
PART 0
HKLF 4
END
