TITL CrystalPilot n0052 in P -1
REM CrystalPilot node n0052 tool=run_shelxl
REM R1 = 0.0666 wR2 = 0.21 GooF = 1.028
CELL 0.71073 10.15540 12.70750 20.80080 107.6910 100.3150 96.2330
ZERR 2 0.00170 0.00210 0.00440 0.0030 0.0030 0.0020
LATT 1
SFAC C H N P Ni La
UNIT 88.0 110.0 16.0 4.0 2.0 2.0

DFIX 1.3900 0.010 C28 C40
DFIX 1.3900 0.010 C40 C42
DFIX 1.3900 0.010 C42 C34
DFIX 1.3900 0.010 C34 C39
DFIX 1.3900 0.010 C39 C43
DFIX 1.3900 0.010 C43 C28
FLAT 0.01 C28 C40 C42 C34 C39 C43

WGHT 0.082660 10.758620
FVAR 0.18918
LA1   6   0.429123   0.291508   0.269797    11.00000     0.04337     0.03297 =
      0.04292     0.00575     0.00735     0.00970
NI1   5   0.466925   0.070248   0.207497    11.00000     0.04989     0.03161 =
      0.04633     0.00541     0.01023     0.01108
P1    4   0.260873   0.052334   0.145788    11.00000     0.05159     0.03258 =
      0.04676     0.00292     0.00494     0.00679
P2    4   0.511752   0.071706   0.315006    11.00000     0.05990     0.03555 =
      0.04881     0.00988     0.00959     0.01477
N1    3   0.252007   0.280783   0.169812    11.00000     0.05624     0.03273 =
      0.04735     0.00715     0.00347     0.01090
N2    3   0.383344   0.246993   0.375546    11.00000     0.06428     0.04062 =
      0.04817     0.01038     0.01706     0.01533
N3    3   0.627161   0.295518   0.216828    11.00000     0.04647     0.04295 =
      0.05357     0.00986     0.00968     0.00303
C1    1   0.294923   0.493949   0.270044    11.00000     0.05536     0.03452 =
      0.04892     0.00706     0.00458     0.01210
N4    3   0.116964   0.348083   0.082447    11.00000     0.08668     0.06352 =
      0.05265     0.01558     0.00456     0.01435
N5    3   0.244447   0.448831   0.315956    11.00000     0.07084     0.05392 =
      0.05436     0.00747     0.00686     0.02324
N6    3   0.328089   0.458125   0.380283    11.00000     0.06970     0.04632 =
      0.05191     0.00370     0.00906     0.01952
C2    1   0.194730   0.362974   0.149708    11.00000     0.05377     0.03828 =
      0.04533     0.01326     0.00572     0.00972
C3    1   0.570097  -0.143788   0.142820    11.00000     0.08397     0.03433 =
      0.05644     0.00609     0.02135     0.02740
N7    3   0.212021   0.472575   0.199235    11.00000     0.06130     0.04897 =
      0.05731     0.01239     0.00784     0.00787
C4    1   0.593608   0.187297   0.192565    11.00000     0.05140     0.04677 =
      0.05743     0.01338     0.01318     0.01231
C5    1   0.429176   0.550981   0.289337    11.00000     0.06313     0.03932 =
      0.06439     0.01527     0.00743     0.00454
C6    1   0.274533   0.401991   0.425857    11.00000     0.06196     0.04912 =
      0.04288     0.00583     0.00652     0.01802
C7    1   0.219329   0.170835   0.115557    11.00000     0.07344     0.04152 =
      0.04863     0.00524    -0.00256     0.01393
C8    1   0.153899   0.557551   0.182437    11.00000     0.08327     0.04069 =
      0.06226     0.01562     0.00579     0.01659
AFIX 43
H8    2   0.166631   0.627738   0.216066    11.00000    -1.20000
AFIX 0
N8    3   0.529997  -0.061478   0.166204    11.00000     0.07190     0.06058 =
      0.06511     0.01762     0.01349     0.01279
C9    1   0.194214   0.450689   0.469713    11.00000     0.07158     0.06941 =
      0.04965     0.00469     0.01683     0.02754
AFIX 43
H9    2   0.172333   0.520070   0.470181    11.00000    -1.20000
AFIX 0
C10   1   0.460217   0.515139   0.396936    11.00000     0.06615     0.04499 =
      0.04951     0.00106    -0.00522     0.00837
C11   1   0.736228   0.360435   0.198532    11.00000     0.05871     0.04923 =
      0.08377     0.01677     0.02954     0.00139
C12   1   0.060095   0.435097   0.067584    11.00000     0.10333     0.05929 =
      0.05110     0.02363    -0.00655     0.01105
AFIX 43
H12   2   0.008937   0.422126   0.023251    11.00000    -1.20000
AFIX 0
C13   1   0.309836   0.295399   0.421940    11.00000     0.06274     0.04493 =
      0.04439     0.00678     0.01159     0.01130
C14   1   0.176652   0.296871   0.511440    11.00000     0.08392     0.08155 =
      0.05826     0.01308     0.02611     0.01218
AFIX 43
H14   2   0.143445   0.261257   0.539739    11.00000    -1.20000
AFIX 0
C15   1   0.689762   0.135099   0.364641    11.00000     0.06723     0.05797 =
      0.05914     0.02142    -0.00216     0.01127
C16   1   0.105215   0.017512   0.177335    11.00000     0.04778     0.08033 =
      0.09176     0.03117     0.00803    -0.00167
C17   1   0.513282   0.561471   0.353070    11.00000     0.06418     0.04489 =
      0.06472     0.00811    -0.00323    -0.00508
C18   1   0.716553   0.263032   0.386385    11.00000     0.07339     0.06969 =
      0.07221     0.01691     0.00340     0.00320
AFIX 137
H18A  2   0.809021   0.291229   0.411597    11.00000    -1.50000
H18B  2   0.656383   0.292823   0.415287    11.00000    -1.50000
H18C  2   0.701089   0.285426   0.345932    11.00000    -1.50000
AFIX 0
C19   1   0.416566   0.139361   0.380800    11.00000     0.07605     0.04728 =
      0.04850     0.01578     0.01745     0.01859
C20   1   0.077041   0.539995   0.116405    11.00000     0.11300     0.05230 =
      0.06106     0.02289     0.00029     0.02946
AFIX 43
H20   2   0.038310   0.597227   0.105539    11.00000    -1.20000
AFIX 0
C21   1   0.257469   0.244916   0.468211    11.00000     0.08210     0.06150 =
      0.05259     0.01682     0.02348     0.01532
AFIX 43
H21   2   0.278493   0.175835   0.469023    11.00000    -1.20000
AFIX 0
C22   1   0.221847  -0.056365   0.057602    11.00000     0.08370     0.04968 =
      0.05659    -0.00413    -0.00768     0.01536
C23   1   0.145240   0.399842   0.512930    11.00000     0.07597     0.09587 =
      0.05949     0.01426     0.02716     0.03505
AFIX 43
H23   2   0.092223   0.434677   0.542327    11.00000    -1.20000
AFIX 0
C24   1   0.496173  -0.073022   0.322199    11.00000     0.10223     0.04237 =
      0.07754     0.02321     0.01907     0.02227
C25   1   0.336562  -0.039702   0.018982    11.00000     0.11771     0.07752 =
      0.05938     0.00465     0.01869     0.03382
AFIX 137
H25A  2   0.315498  -0.095798  -0.026085    11.00000    -1.50000
H25B  2   0.421523  -0.046475   0.044979    11.00000    -1.50000
H25C  2   0.343278   0.033424   0.014279    11.00000    -1.50000
AFIX 0
C26   1   0.358877  -0.142199   0.283833    11.00000     0.10605     0.05155 =
      0.10272     0.02410     0.01785    -0.00754
AFIX 137
H26A  2   0.354001  -0.215355   0.288434    11.00000    -1.50000
H26B  2   0.345506  -0.149185   0.235746    11.00000    -1.50000
H26C  2   0.289501  -0.106206   0.302834    11.00000    -1.50000
AFIX 0
C27   1   0.608799  -0.252743   0.114607    11.00000     0.09699     0.04462 =
      0.08506     0.01091     0.03119     0.03848
C28   1   1.091831   0.715366   0.371124    11.00000     0.15585     0.07650 =
      0.11843     0.03337     0.04808     0.03772
AFIX 43
H28   2   1.103158   0.640732   0.358762    11.00000    -1.20000
AFIX 0
C29   1   0.791900   0.087777   0.322958    11.00000     0.06157     0.10743 =
      0.11055     0.03264     0.01052     0.03420
AFIX 137
H29A  2   0.882531   0.121350   0.349317    11.00000    -1.50000
H29B  2   0.777194   0.104206   0.280392    11.00000    -1.50000
H29C  2   0.780213   0.008013   0.312950    11.00000    -1.50000
AFIX 0
C30   1   0.196464  -0.175420   0.062152    11.00000     0.10766     0.04499 =
      0.09521    -0.00872    -0.01341     0.00752
AFIX 137
H30A  2   0.176716  -0.229585   0.016456    11.00000    -1.50000
H30B  2   0.120826  -0.182960   0.083230    11.00000    -1.50000
H30C  2   0.276039  -0.187873   0.089604    11.00000    -1.50000
AFIX 0
C31   1   0.855754   0.304567   0.189992    11.00000     0.06955     0.12169 =
      0.23178     0.07058     0.08438     0.02776
AFIX 137
H31A  2   0.922258   0.350809   0.178233    11.00000    -1.50000
H31B  2   0.827917   0.233352   0.153699    11.00000    -1.50000
H31C  2   0.894507   0.293353   0.232513    11.00000    -1.50000
AFIX 0
C32   1   0.100502   0.099532   0.243451    11.00000     0.07496     0.13429 =
      0.08301     0.02051     0.01941     0.01750
AFIX 137
H32A  2   0.019244   0.077901   0.257211    11.00000    -1.50000
H32B  2   0.100690   0.172173   0.238411    11.00000    -1.50000
H32C  2   0.178481   0.102307   0.278087    11.00000    -1.50000
AFIX 0
C33   1  -0.035826  -0.002966   0.126284    11.00000     0.05313     0.15653 =
      0.12425     0.02108     0.00552    -0.00123
AFIX 137
H33A  2  -0.107115  -0.019947   0.148164    11.00000    -1.50000
H33B  2  -0.039963  -0.064741   0.085159    11.00000    -1.50000
H33C  2  -0.046845   0.063239   0.114239    11.00000    -1.50000
AFIX 0
C34   1   1.056589   0.936220   0.406605    11.00000     0.17193     0.08793 =
      0.14784     0.00706     0.00254     0.03155
AFIX 43
H34   2   1.044726   1.010712   0.418499    11.00000    -1.20000
AFIX 0
C35   1   0.539761  -0.080862   0.394548    11.00000     0.18459     0.06956 =
      0.09801     0.04787     0.00548     0.02225
AFIX 137
H35A  2   0.527376  -0.158202   0.391817    11.00000    -1.50000
H35B  2   0.485496  -0.041678   0.423982    11.00000    -1.50000
H35C  2   0.633807  -0.047634   0.413319    11.00000    -1.50000
AFIX 0
C36   1   0.772341   0.474606   0.250142    11.00000     0.21840     0.08163 =
      0.20880    -0.03372     0.13276    -0.07141
AFIX 137
H36A  2   0.843011   0.517673   0.238912    11.00000    -1.50000
H36B  2   0.803651   0.469857   0.295377    11.00000    -1.50000
H36C  2   0.693794   0.510373   0.249627    11.00000    -1.50000
AFIX 0
C37   1   0.638287  -0.261493   0.047128    11.00000     0.15226     0.11638 =
      0.10783     0.00296     0.05478     0.04485
AFIX 137
H37A  2   0.664048  -0.332877   0.027644    11.00000    -1.50000
H37B  2   0.711363  -0.202574   0.052595    11.00000    -1.50000
H37C  2   0.558824  -0.254777   0.016811    11.00000    -1.50000
AFIX 0
C38   1   0.677029   0.369668   0.126841    11.00000     0.12499     0.13084 =
      0.13485     0.07526     0.02607    -0.01309
AFIX 137
H38A  2   0.745292   0.411421   0.113330    11.00000    -1.50000
H38B  2   0.600262   0.407420   0.129543    11.00000    -1.50000
H38C  2   0.648846   0.295885   0.093221    11.00000    -1.50000
AFIX 0
C39   1   1.149480   0.902925   0.448957    11.00000     0.18744     0.13324 =
      0.09639     0.01656    -0.02417    -0.00433
AFIX 43
H39   2   1.201125   0.955176   0.490026    11.00000    -1.20000
AFIX 0
C40   1   0.999820   0.749885   0.329641    11.00000     0.15926     0.09218 =
      0.15906     0.00076    -0.01633     0.02448
AFIX 43
H40   2   0.947887   0.697950   0.288529    11.00000    -1.20000
AFIX 0
C41   1   0.483427  -0.345140   0.104244    11.00000     0.17516     0.04878 =
      0.26090     0.04423     0.09998     0.02989
AFIX 137
H41A  2   0.506004  -0.418091   0.085640    11.00000    -1.50000
H41B  2   0.407384  -0.336201   0.072747    11.00000    -1.50000
H41C  2   0.460302  -0.337574   0.148014    11.00000    -1.50000
AFIX 0
C42   1   0.981638   0.859046   0.346804    11.00000     0.19232     0.10978 =
      0.15708     0.00784    -0.02531     0.05065
AFIX 43
H42   2   0.917837   0.880614   0.317510    11.00000    -1.20000
AFIX 0
C43   1   1.167647   0.792472   0.431502    11.00000     0.15777     0.23373 =
      0.16112     0.13265     0.03592     0.07781
AFIX 43
H43   2   1.231232   0.770547   0.460699    11.00000    -1.20000
AFIX 0
C44   1   0.721069  -0.264341   0.166206    11.00000     0.18965     0.10007 =
      0.13926     0.02597    -0.00532     0.08271
AFIX 137
H44A  2   0.748103  -0.335763   0.148552    11.00000    -1.50000
H44B  2   0.691526  -0.259317   0.208210    11.00000    -1.50000
H44C  2   0.796776  -0.205505   0.175498    11.00000    -1.50000
AFIX 0
HKLF 4
END
