TITL CrystalPilot n0184 in P -1
REM CrystalPilot node n0184 tool=assemble_asu
REM R1 = 0.0648 wR2 = 0.1993 GooF = 0.951
CELL 0.71073 10.15540 12.70750 20.80080 107.6910 100.3150 96.2330
ZERR 2 0.00170 0.00210 0.00440 0.0030 0.0030 0.0020
LATT 1
SFAC C H N P Ni La
UNIT 96.0 138.0 8.0 4.0 2.0 2.0

DFIX 1.3900 0.010 C28 C40
DFIX 1.3900 0.010 C40 C42
DFIX 1.3900 0.010 C42 C34
DFIX 1.3900 0.010 C34 C39
DFIX 1.3900 0.010 C39 C43
DFIX 1.3900 0.010 C43 C28
DFIX 1.3900 0.010 C28B C40B
DFIX 1.3900 0.010 C40B C42B
DFIX 1.3900 0.010 C42B C34B
DFIX 1.3900 0.010 C34B C39B
DFIX 1.3900 0.010 C39B C43B
DFIX 1.3900 0.010 C43B C28B
FLAT 0.01 C28 C40 C42 C34 C39 C43
FLAT 0.01 C28B C40B C42B C34B C39B C43B
SADI 0.020 P1 C22 P1 C16 P1 C22B P1 C16B
SADI 0.020 C22 C25 C22 C30 C16 C33 C16 C32 C22B C25B C22B C30B C16B C33B =
 C16B C32B
SIMU 0.010 0.020 P1 C22 C25 C30 C16 C33 C32 C22B C25B C30B C16B C33B C32B
SADI 0.020 C11 C36 C11 C38 C11 C31 C11 C36B C11 C38B C11 C31B
SIMU 0.010 0.020 C11 C36 C38 C31 C36B C38B C31B
SADI 0.020 C27 C44 C27 C37 C27 C41 C27 C44B C27 C37B C27 C41B
SIMU 0.010 0.020 C27 C44 C37 C41 C44B C37B C41B
SIMU 0.010 0.020 C28 C40 C42 C34 C39 C43 C28B C40B C42B C34B C39B C43B
DFIX 0.9800 0.020 C4 H0

WGHT 0.069430 14.286553
FVAR 0.18977 0.86573 0.77801 0.79267 0.71409
LA1   6   0.429133   0.291508   0.269794    11.00000     0.04354     0.03311 =
      0.04309     0.00579     0.00734     0.00978
NI1   5   0.466921   0.070241   0.207488    11.00000     0.04994     0.03180 =
      0.04648     0.00555     0.01019     0.01116
P1    4   0.260810   0.052355   0.145804    11.00000     0.05173     0.03296 =
      0.04700     0.00317     0.00492     0.00680
P2    4   0.511712   0.071653   0.315005    11.00000     0.06015     0.03564 =
      0.04891     0.00990     0.00961     0.01503
N1    3   0.251789   0.281028   0.169953    11.00000     0.05651     0.03239 =
      0.04724     0.00695     0.00328     0.01069
N2    3   0.383475   0.247110   0.375666    11.00000     0.06382     0.04138 =
      0.04771     0.01049     0.01625     0.01631
N3    3   0.627239   0.295538   0.216774    11.00000     0.04629     0.04390 =
      0.05375     0.01079     0.00945     0.00309
C1    1   0.295017   0.493774   0.270057    11.00000     0.05508     0.03430 =
      0.04889     0.00585     0.00374     0.01295
C45   1   0.116918   0.348906   0.082897    11.00000     0.07505     0.04725 =
      0.04100     0.00909     0.00331     0.01121
AFIX 43
H45   2   0.103606   0.279668   0.048294    11.00000    -1.20000
AFIX 0
C46   1   0.245529   0.449748   0.316192    11.00000     0.05306     0.04118 =
      0.04654     0.00527     0.00525     0.01521
AFIX 43
H46   2   0.155637   0.413607   0.304454    11.00000    -1.20000
AFIX 0
C47   1   0.327846   0.458352   0.380328    11.00000     0.05799     0.03546 =
      0.04148     0.00168     0.00765     0.01487
C2    1   0.195016   0.363010   0.149839    11.00000     0.05428     0.03785 =
      0.04556     0.01317     0.00511     0.00926
C3    1   0.570012  -0.144145   0.142754    11.00000     0.08299     0.03355 =
      0.05486     0.00546     0.02036     0.02633
C48   1   0.211793   0.472318   0.199094    11.00000     0.05155     0.03821 =
      0.04602     0.00905     0.00691     0.00594
C4    1   0.593672   0.188125   0.193180    11.00000     0.05168     0.04714 =
      0.05640     0.01266     0.01386     0.01365
C5    1   0.429208   0.550600   0.289255    11.00000     0.06307     0.03846 =
      0.06441     0.01432     0.00744     0.00429
AFIX 43
H5    2   0.463392   0.581720   0.259230    11.00000    -1.20000
AFIX 0
C6    1   0.274429   0.402050   0.425830    11.00000     0.06228     0.04943 =
      0.04215     0.00449     0.00600     0.01834
C7    1   0.219135   0.170800   0.115602    11.00000     0.07355     0.04027 =
      0.04920     0.00516    -0.00242     0.01404
AFIX 23
H7A   2   0.122758   0.155864   0.094608    11.00000    -1.20000
H7B   2   0.268059   0.173597   0.079987    11.00000    -1.20000
AFIX 0
C8    1   0.153885   0.557843   0.182605    11.00000     0.08110     0.04202 =
      0.06109     0.01531     0.00491     0.01650
AFIX 43
H8    2   0.166069   0.627853   0.216347    11.00000    -1.20000
AFIX 0
N4    3   0.529791  -0.061514   0.166134    11.00000     0.07288     0.06062 =
      0.06594     0.01777     0.01382     0.01303
C9    1   0.193705   0.450772   0.469686    11.00000     0.07172     0.06958 =
      0.05060     0.00471     0.01667     0.02879
AFIX 43
H9    2   0.171610   0.520053   0.470053    11.00000    -1.20000
AFIX 0
C10   1   0.459770   0.515186   0.396911    11.00000     0.06822     0.04614 =
      0.04809     0.00101    -0.00440     0.00942
AFIX 43
H10   2   0.514970   0.522601   0.439405    11.00000    -1.20000
AFIX 0
C11   1   0.735794   0.360470   0.198446    11.00000     0.06284     0.05133 =
      0.09317     0.02096     0.03400     0.00258
C12   1   0.060082   0.435175   0.067679    11.00000     0.10166     0.06190 =
      0.05188     0.02456    -0.00699     0.01140
AFIX 43
H12   2   0.008454   0.421744   0.023385    11.00000    -1.20000
AFIX 0
C13   1   0.309907   0.295040   0.422082    11.00000     0.06226     0.04520 =
      0.04404     0.00712     0.01203     0.01168
C14   1   0.176338   0.296556   0.511405    11.00000     0.08234     0.08413 =
      0.05663     0.01295     0.02442     0.01127
AFIX 43
H14   2   0.142537   0.260407   0.539309    11.00000    -1.20000
AFIX 0
C15   1   0.690124   0.135304   0.364919    11.00000     0.06760     0.05860 =
      0.06067     0.02236    -0.00282     0.01068
AFIX 13
H15   2   0.703123   0.115772   0.407449    11.00000    -1.20000
AFIX 0
PART 1
C16   1   0.106786   0.017070   0.177972    21.00000     0.04949     0.07117 =
      0.07053     0.02070     0.00261    -0.00226
AFIX 13
H16   2   0.120028  -0.055704   0.182692    21.00000    -1.20000
AFIX 0
PART 0
C17   1   0.513004   0.561385   0.353058    11.00000     0.06548     0.04411 =
      0.06525     0.00804    -0.00320    -0.00442
AFIX 43
H17   2   0.602416   0.598818   0.365536    11.00000    -1.20000
AFIX 0
C18   1   0.715523   0.264216   0.386649    11.00000     0.07619     0.06827 =
      0.07289     0.01655     0.00252    -0.00005
AFIX 137
H18A  2   0.807795   0.293176   0.411981    11.00000    -1.50000
H18B  2   0.654865   0.293454   0.415394    11.00000    -1.50000
H18C  2   0.699744   0.286392   0.346120    11.00000    -1.50000
AFIX 0
C19   1   0.416193   0.139238   0.380803    11.00000     0.07757     0.04722 =
      0.04790     0.01524     0.01828     0.01910
AFIX 23
H19A  2   0.470035   0.151588   0.426774    11.00000    -1.20000
H19B  2   0.332577   0.088833   0.374654    11.00000    -1.20000
AFIX 0
C20   1   0.077654   0.539995   0.116031    11.00000     0.10959     0.05382 =
      0.06181     0.02361     0.00019     0.02884
AFIX 43
H20   2   0.039962   0.597389   0.104817    11.00000    -1.20000
AFIX 0
C21   1   0.258273   0.245724   0.468482    11.00000     0.08256     0.06026 =
      0.05271     0.01658     0.02270     0.01462
AFIX 43
H21   2   0.280560   0.177223   0.469812    11.00000    -1.20000
AFIX 0
PART 1
C22   1   0.218219  -0.057574   0.057745    21.00000     0.06800     0.04600 =
      0.05618    -0.00329    -0.00497     0.00809
AFIX 13
H22   2   0.132913  -0.049110   0.030734    21.00000    -1.20000
AFIX 0
PART 0
C23   1   0.144871   0.400023   0.512903    11.00000     0.07711     0.09281 =
      0.06041     0.01481     0.02910     0.03450
AFIX 43
H23   2   0.091954   0.434918   0.542340    11.00000    -1.20000
AFIX 0
C24   1   0.496328  -0.073158   0.322267    11.00000     0.10222     0.04247 =
      0.07747     0.02236     0.02135     0.02334
AFIX 13
H24   2   0.565929  -0.105574   0.299383    11.00000    -1.20000
AFIX 0
PART 1
C25   1   0.331334  -0.041524   0.018035    21.00000     0.08657     0.06500 =
      0.05608    -0.00135     0.00680     0.01847
AFIX 137
H25A  2   0.309126  -0.097903  -0.026949    21.00000    -1.50000
H25B  2   0.416878  -0.048236   0.043518    21.00000    -1.50000
H25C  2   0.337590   0.031442   0.013105    21.00000    -1.50000
AFIX 0
PART 0
C26   1   0.359833  -0.142281   0.284061    11.00000     0.10586     0.05228 =
      0.10359     0.02492     0.01823    -0.00551
AFIX 137
H26A  2   0.355170  -0.215387   0.288729    11.00000    -1.50000
H26B  2   0.346493  -0.149361   0.235961    11.00000    -1.50000
H26C  2   0.290312  -0.106419   0.302995    11.00000    -1.50000
AFIX 0
C27   1   0.606829  -0.253611   0.114280    11.00000     0.10582     0.04669 =
      0.08986     0.01460     0.03598     0.04291
PART 1
C28   1   1.095619   0.715342   0.372729    51.00000     0.13012     0.08632 =
      0.10299     0.02209     0.01114     0.03486
AFIX 43
H28   2   1.109627   0.641450   0.362098    51.00000    -1.20000
AFIX 0
PART 0
C29   1   0.791952   0.087227   0.322780    11.00000     0.06196     0.10428 =
      0.10875     0.02879     0.01018     0.03375
AFIX 137
H29A  2   0.882795   0.120514   0.348929    11.00000    -1.50000
H29B  2   0.777003   0.103579   0.280191    11.00000    -1.50000
H29C  2   0.779863   0.007463   0.312816    11.00000    -1.50000
AFIX 0
PART 1
C30   1   0.194247  -0.176533   0.063600    21.00000     0.09684     0.04793 =
      0.08610    -0.00624    -0.00445     0.00523
AFIX 137
H30A  2   0.172627  -0.231559   0.018146    21.00000    -1.50000
H30B  2   0.120230  -0.183285   0.085862    21.00000    -1.50000
H30C  2   0.275035  -0.188442   0.090419    21.00000    -1.50000
AFIX 0
C31   1   0.862712   0.307613   0.195987    31.00000     0.06070     0.09906 =
      0.13948     0.02808     0.04206     0.00708
AFIX 137
H31A  2   0.929345   0.353223   0.183889    31.00000    -1.50000
H31B  2   0.840169   0.234000   0.161954    31.00000    -1.50000
H31C  2   0.898862   0.302200   0.240563    31.00000    -1.50000
AFIX 0
C32   1   0.101155   0.101555   0.244946    21.00000     0.06162     0.09469 =
      0.07570     0.01340     0.01439     0.00860
AFIX 137
H32A  2   0.020487   0.079464   0.259023    21.00000    -1.50000
H32B  2   0.099650   0.173579   0.239167    21.00000    -1.50000
H32C  2   0.179708   0.105941   0.279708    21.00000    -1.50000
AFIX 0
C33   1  -0.034084   0.000444   0.128290    21.00000     0.05398     0.11299 =
      0.09907     0.00619     0.00511    -0.00314
AFIX 137
H33A  2  -0.105072  -0.017213   0.150169    21.00000    -1.50000
H33B  2  -0.039914  -0.059881   0.086190    21.00000    -1.50000
H33C  2  -0.043994   0.068190   0.117924    21.00000    -1.50000
AFIX 0
C34   1   1.054477   0.936559   0.404698    51.00000     0.13269     0.08626 =
      0.10627     0.01080    -0.00892     0.03837
AFIX 43
H34   2   1.040516   1.010453   0.415196    51.00000    -1.20000
AFIX 0
PART 0
C35   1   0.539085  -0.081055   0.393815    11.00000     0.18001     0.07371 =
      0.09904     0.05094     0.00928     0.02605
AFIX 137
H35A  2   0.526773  -0.158426   0.391016    11.00000    -1.50000
H35B  2   0.484583  -0.042030   0.423165    11.00000    -1.50000
H35C  2   0.633069  -0.047727   0.412730    11.00000    -1.50000
AFIX 0
PART 1
C36   1   0.766610   0.480344   0.247585    31.00000     0.11335     0.06474 =
      0.12379     0.01145     0.03864    -0.02036
AFIX 137
H36A  2   0.837089   0.522679   0.235781    31.00000    -1.50000
H36B  2   0.796110   0.480870   0.294201    31.00000    -1.50000
H36C  2   0.686143   0.513385   0.243887    31.00000    -1.50000
AFIX 0
C37   1   0.648204  -0.257563   0.048191    41.00000     0.11178     0.08487 =
      0.09844     0.00475     0.03301     0.02276
AFIX 137
H37A  2   0.673189  -0.329038   0.028063    41.00000    -1.50000
H37B  2   0.724361  -0.199075   0.057576    41.00000    -1.50000
H37C  2   0.573610  -0.247112   0.016528    41.00000    -1.50000
AFIX 0
C38   1   0.677915   0.368528   0.126309    31.00000     0.09985     0.08665 =
      0.09619     0.04043     0.02659    -0.00692
AFIX 137
H38A  2   0.746432   0.410407   0.113023    31.00000    -1.50000
H38B  2   0.600598   0.405702   0.128252    31.00000    -1.50000
H38C  2   0.650834   0.294471   0.092933    31.00000    -1.50000
AFIX 0
C39   1   1.143004   0.905747   0.451700    51.00000     0.13548     0.09255 =
      0.10185     0.01622    -0.00527     0.03638
AFIX 43
H39   2   1.189226   0.958154   0.493951    51.00000    -1.20000
AFIX 0
C40   1   1.008513   0.748991   0.327370    51.00000     0.12975     0.09093 =
      0.11061     0.01109     0.00322     0.03903
AFIX 43
H40   2   0.962521   0.696474   0.285113    51.00000    -1.20000
AFIX 0
C41   1   0.482903  -0.345771   0.098731    41.00000     0.13880     0.04845 =
      0.13372     0.01504     0.04006     0.01955
AFIX 137
H41A  2   0.507303  -0.417952   0.079949    41.00000    -1.50000
H41B  2   0.410434  -0.335560   0.065812    41.00000    -1.50000
H41C  2   0.453595  -0.341343   0.140724    41.00000    -1.50000
AFIX 0
C42   1   0.987227   0.858178   0.342584    51.00000     0.13583     0.09141 =
      0.10703     0.00903    -0.00396     0.03824
AFIX 43
H42   2   0.927562   0.878706   0.310917    51.00000    -1.20000
AFIX 0
C43   1   1.161072   0.795600   0.434439    51.00000     0.13462     0.09254 =
      0.10345     0.02364     0.00554     0.03536
AFIX 43
H43   2   1.220345   0.774669   0.466056    51.00000    -1.20000
AFIX 0
C44   1   0.715467  -0.266101   0.169375    41.00000     0.13945     0.08434 =
      0.11022     0.02834     0.01604     0.05466
AFIX 137
H44A  2   0.742998  -0.337573   0.152735    41.00000    -1.50000
H44B  2   0.680671  -0.261361   0.209957    41.00000    -1.50000
H44C  2   0.792237  -0.207359   0.180682    41.00000    -1.50000
AFIX 0
PART 2
C22B  1   0.261343  -0.044046   0.057326   -21.00000     0.06711     0.04410 =
      0.05381    -0.00020     0.00189     0.00670
AFIX 13
H22B  2   0.193719  -0.026692   0.023838   -21.00000    -1.20000
AFIX 0
C25B  1   0.390161  -0.022822   0.029851   -21.00000     0.07432     0.05260 =
      0.05052    -0.00465     0.00191     0.00662
AFIX 137
H1    2   0.380388  -0.076190  -0.015464   -21.00000    -1.50000
H2    2   0.468112  -0.030851   0.060580   -21.00000    -1.50000
H3    2   0.401883   0.051739   0.027396   -21.00000    -1.50000
AFIX 0
C30B  1   0.217950  -0.166381   0.053896   -21.00000     0.07155     0.04782 =
      0.06015    -0.00547     0.00602     0.00512
AFIX 137
H4    2   0.217885  -0.216437   0.008799   -21.00000    -1.50000
H6    2   0.128331  -0.175550   0.062481   -21.00000    -1.50000
H7    2   0.280681  -0.183146   0.088278   -21.00000    -1.50000
AFIX 0
C16B  1   0.087266   0.005798   0.156835   -21.00000     0.05284     0.06689 =
      0.06774     0.01249     0.00406     0.00207
AFIX 13
H16B  2   0.046481   0.069659   0.150941   -21.00000    -1.20000
AFIX 0
C33B  1  -0.034008  -0.069019   0.098965   -21.00000     0.06003     0.09190 =
      0.08574     0.01400     0.00857     0.00195
AFIX 137
H11   2  -0.110953  -0.080192   0.118543   -21.00000    -1.50000
H13   2  -0.009769  -0.140231   0.077433   -21.00000    -1.50000
H18   2  -0.056626  -0.033104   0.064976   -21.00000    -1.50000
AFIX 0
C32B  1   0.098066  -0.009013   0.228345   -21.00000     0.05035     0.08467 =
      0.07478     0.01416     0.01055     0.00380
AFIX 137
H19   2   0.008947  -0.032864   0.233778   -21.00000    -1.50000
H25   2   0.138479   0.061087   0.263971   -21.00000    -1.50000
H26   2   0.153498  -0.064486   0.231821   -21.00000    -1.50000
AFIX 0
C36B  1   0.820325   0.440092   0.269116   -31.00000     0.08864     0.06667 =
      0.12165     0.01224     0.03544    -0.01762
AFIX 137
H27   2   0.894177   0.486139   0.262121   -31.00000    -1.50000
H29   2   0.855779   0.396798   0.296671   -31.00000    -1.50000
H30   2   0.763652   0.486916   0.292559   -31.00000    -1.50000
AFIX 0
C38B  1   0.672207   0.458948   0.187164   -31.00000     0.09627     0.07845 =
      0.11424     0.02884     0.03142    -0.00528
AFIX 137
H31   2   0.736196   0.506525   0.174860   -31.00000    -1.50000
H32   2   0.648586   0.501124   0.229010   -31.00000    -1.50000
H33   2   0.591915   0.431026   0.150538   -31.00000    -1.50000
AFIX 0
C31B  1   0.832549   0.288232   0.165883   -31.00000     0.04579     0.07201 =
      0.10266     0.00813     0.04554     0.00925
AFIX 137
H35   2   0.900858   0.334117   0.154977   -31.00000    -1.50000
H36   2   0.782570   0.230411   0.124282   -31.00000    -1.50000
H37   2   0.875159   0.254670   0.197881   -31.00000    -1.50000
AFIX 0
C44B  1   0.752904  -0.254781   0.145410   -41.00000     0.12025     0.07198 =
      0.10136     0.02420     0.02831     0.05123
AFIX 137
H38   2   0.774210  -0.327871   0.125691   -41.00000    -1.50000
H41   2   0.765283  -0.237119   0.194607   -41.00000    -1.50000
H44   2   0.811952  -0.200095   0.135694   -41.00000    -1.50000
AFIX 0
C37B  1   0.581775  -0.287365   0.036633   -41.00000     0.11108     0.06935 =
      0.09289    -0.00045     0.03790     0.03205
AFIX 137
H47   2   0.606422  -0.359633   0.018479   -41.00000    -1.50000
H48   2   0.635641  -0.233084   0.024093   -41.00000    -1.50000
H49   2   0.487282  -0.290907   0.017803   -41.00000    -1.50000
AFIX 0
C41B  1   0.520184  -0.328270   0.140563   -41.00000     0.13635     0.05139 =
      0.11166     0.02897     0.03049     0.03569
AFIX 137
H50   2   0.537564  -0.403518   0.124232   -41.00000    -1.50000
H51   2   0.425940  -0.327487   0.123902   -41.00000    -1.50000
H52   2   0.541955  -0.301276   0.190267   -41.00000    -1.50000
AFIX 0
C28B  1   1.179855   0.746815   0.407133   -51.00000     0.13274     0.08652 =
      0.10047     0.02055     0.00844     0.03312
AFIX 43
H28B  2   1.239874   0.698862   0.413923   -51.00000    -1.20000
AFIX 0
C43B  1   1.207166   0.861025   0.444700   -51.00000     0.13568     0.09026 =
      0.10153     0.01717     0.00501     0.03324
AFIX 43
H43B  2   1.286949   0.893777   0.478274   -51.00000    -1.20000
AFIX 0
C39B  1   1.109454   0.923575   0.429570   -51.00000     0.13587     0.09095 =
      0.10583     0.01512    -0.00096     0.03559
AFIX 43
H39B  2   1.124696   1.000131   0.453685   -51.00000    -1.20000
AFIX 0
C34B  1   0.989890   0.875880   0.379744   -51.00000     0.13522     0.09162 =
      0.10660     0.01383    -0.00131     0.03744
AFIX 43
H34B  2   0.929180   0.923091   0.372481   -51.00000    -1.20000
AFIX 0
C42B  1   0.953778   0.763558   0.339969   -51.00000     0.13433     0.09261 =
      0.10769     0.01314     0.00402     0.03597
AFIX 43
H42B  2   0.874082   0.730321   0.306413   -51.00000    -1.20000
AFIX 0
C40B  1   1.057595   0.709753   0.359151   -51.00000     0.13112     0.08733 =
      0.10278     0.02008     0.00625     0.03567
AFIX 43
H40B  2   1.041893   0.633248   0.334848   -51.00000    -1.20000
AFIX 0
PART 0
H0    2   0.643500   0.147200   0.153800    11.00000     0.06000
HKLF 4
END
