TITL CrystalPilot n0005 in P 21 21 21
REM CrystalPilot node n0005 tool=refine
REM R1 = 0.0533 wR2 = 0.1834 GooF = 1.265
CELL 0.68890 5.42807 8.12883 12.05269 90.0000 90.0000 90.0000
ZERR 4 0.00000 0.00000 0.00000 0.0000 0.0000 0.0000
LATT -1
SYMM X+1/2,-Y+1/2,-Z
SYMM -X,Y+1/2,-Z+1/2
SYMM -X+1/2,-Y,Z+1/2
SFAC C N O S
UNIT 12.0 4.0 8.0 4.0

WGHT 0.100000 0.000000
FVAR 1.15066
C1    4   0.118867   0.413439   0.524181    11.00000     0.02977     0.01835 =
      0.01654     0.00367     0.00034    -0.00411
C2    3   0.207553   0.217035   0.119278    11.00000     0.01024     0.02160 =
      0.02084     0.00716     0.00006    -0.00232
C3    3   0.230940   0.009699   0.240362    11.00000     0.01651     0.02627 =
      0.02655     0.01266    -0.00192     0.00139
C4    2   0.214986   0.265608   0.874091    11.00000     0.00883     0.01605 =
      0.01725    -0.00000    -0.00138     0.00008
C5    1   0.166606   0.586891   0.323491    11.00000     0.01105     0.01658 =
      0.01353    -0.00028     0.00041     0.00245
C6    1   0.242407   0.429655   0.384007    11.00000     0.01612     0.01743 =
      0.01865     0.00246    -0.00021     0.00325
C7    1   0.114020   0.105378   0.178832    11.00000     0.01139     0.01671 =
      0.01474     0.00119     0.00048    -0.00146
HKLF 4
END
