TITL CrystalPilot n0156 in P -1
REM CrystalPilot node n0156 tool=add_atoms_from_difference_map
REM R1 = 0.0661 wR2 = 0.21 GooF = 0.966
CELL 0.71073 10.15540 12.70750 20.80080 107.6910 100.3150 96.2330
ZERR 2 0.00170 0.00210 0.00440 0.0030 0.0030 0.0020
LATT 1
SFAC C H N P Ni La
UNIT 96.0 136.0 8.0 4.0 2.0 2.0

DFIX 1.3900 0.010 C28 C40
DFIX 1.3900 0.010 C40 C42
DFIX 1.3900 0.010 C42 C34
DFIX 1.3900 0.010 C34 C39
DFIX 1.3900 0.010 C39 C43
DFIX 1.3900 0.010 C43 C28
DFIX 1.3900 0.010 C28B C40B
DFIX 1.3900 0.010 C40B C42B
DFIX 1.3900 0.010 C42B C34B
DFIX 1.3900 0.010 C34B C39B
DFIX 1.3900 0.010 C39B C43B
DFIX 1.3900 0.010 C43B C28B
FLAT 0.01 C28 C40 C42 C34 C39 C43
FLAT 0.01 C28B C40B C42B C34B C39B C43B
SADI 0.020 P1 C22 P1 C16 P1 C22B P1 C16B
SADI 0.020 C22 C25 C22 C30 C16 C33 C16 C32 C22B C25B C22B C30B C16B C33B =
 C16B C32B
SIMU 0.010 0.020 P1 C22 C25 C30 C16 C33 C32 C22B C25B C30B C16B C33B C32B
SADI 0.020 C11 C36 C11 C38 C11 C31 C11 C36B C11 C38B C11 C31B
SIMU 0.010 0.020 C11 C36 C38 C31 C36B C38B C31B
SADI 0.020 C27 C44 C27 C37 C27 C41 C27 C44B C27 C37B C27 C41B
SIMU 0.010 0.020 C27 C44 C37 C41 C44B C37B C41B
SIMU 0.010 0.020 C28 C40 C42 C34 C39 C43 C28B C40B C42B C34B C39B C43B

WGHT 0.092580 14.286560
FVAR 0.19077 0.87736 0.78389 0.80647 0.71748
LA1   6   0.429131   0.291511   0.269793    11.00000     0.04333     0.03289 =
      0.04282     0.00572     0.00734     0.00972
NI1   5   0.466917   0.070244   0.207488    11.00000     0.05003     0.03190 =
      0.04661     0.00551     0.01028     0.01114
P1    4   0.260805   0.052359   0.145795    11.00000     0.05192     0.03325 =
      0.04709     0.00270     0.00464     0.00659
P2    4   0.511682   0.071638   0.314984    11.00000     0.06032     0.03579 =
      0.04921     0.00988     0.00952     0.01500
N1    3   0.251845   0.281102   0.169977    11.00000     0.05647     0.03273 =
      0.04782     0.00699     0.00345     0.01069
N2    3   0.383348   0.247090   0.375643    11.00000     0.06481     0.04120 =
      0.04813     0.01025     0.01622     0.01624
N3    3   0.627376   0.295449   0.216848    11.00000     0.04640     0.04345 =
      0.05481     0.01068     0.00970     0.00347
C1    1   0.294852   0.493793   0.270059    11.00000     0.05506     0.03503 =
      0.04907     0.00590     0.00364     0.01289
C45   1   0.117029   0.348937   0.082923    11.00000     0.07570     0.04725 =
      0.04195     0.00929     0.00324     0.01104
AFIX 43
H45   2   0.103977   0.279762   0.048292    11.00000    -1.20000
AFIX 0
C46   1   0.245447   0.449653   0.316166    11.00000     0.05381     0.04179 =
      0.04657     0.00498     0.00456     0.01561
AFIX 43
H46   2   0.155592   0.413426   0.304456    11.00000    -1.20000
AFIX 0
C47   1   0.327960   0.458364   0.380252    11.00000     0.05771     0.03571 =
      0.04218     0.00184     0.00756     0.01460
C2    1   0.195055   0.362992   0.149843    11.00000     0.05457     0.03845 =
      0.04542     0.01317     0.00543     0.00961
C3    1   0.569867  -0.144192   0.142640    11.00000     0.08448     0.03381 =
      0.05611     0.00594     0.02083     0.02616
C48   1   0.211896   0.472422   0.199065    11.00000     0.05169     0.03808 =
      0.04638     0.00923     0.00683     0.00584
C4    1   0.593983   0.187942   0.192771    11.00000     0.05121     0.04664 =
      0.05768     0.01268     0.01232     0.01272
C5    1   0.429191   0.550702   0.289197    11.00000     0.06385     0.03788 =
      0.06561     0.01382     0.00754     0.00434
AFIX 43
H5    2   0.463332   0.581886   0.259189    11.00000    -1.20000
AFIX 0
C6    1   0.274343   0.401998   0.425817    11.00000     0.06332     0.04970 =
      0.04174     0.00469     0.00659     0.01875
C7    1   0.219273   0.170827   0.115541    11.00000     0.07387     0.04079 =
      0.04894     0.00468    -0.00172     0.01428
AFIX 23
H7A   2   0.122940   0.155890   0.094461    11.00000    -1.20000
H7B   2   0.268365   0.173657   0.079985    11.00000    -1.20000
AFIX 0
C8    1   0.154010   0.557846   0.182595    11.00000     0.08127     0.04264 =
      0.06149     0.01534     0.00468     0.01664
AFIX 43
H8    2   0.166323   0.627893   0.216312    11.00000    -1.20000
AFIX 0
N4    3   0.529863  -0.061600   0.166174    11.00000     0.07310     0.06013 =
      0.06712     0.01741     0.01472     0.01394
C9    1   0.193778   0.450760   0.469707    11.00000     0.07311     0.06996 =
      0.05095     0.00520     0.01736     0.02964
AFIX 43
H9    2   0.171809   0.520101   0.470149    11.00000    -1.20000
AFIX 0
C10   1   0.459920   0.515132   0.396983    11.00000     0.06862     0.04653 =
      0.04940     0.00069    -0.00495     0.00972
AFIX 43
H10   2   0.515088   0.522491   0.439473    11.00000    -1.20000
AFIX 0
C11   1   0.735807   0.360453   0.198454    11.00000     0.06589     0.05764 =
      0.09766     0.01759     0.03247    -0.00345
C12   1   0.059754   0.435228   0.067690    11.00000     0.10091     0.06254 =
      0.05206     0.02493    -0.00623     0.01130
AFIX 43
H12   2   0.007818   0.421752   0.023460    11.00000    -1.20000
AFIX 0
C13   1   0.309752   0.295007   0.422047    11.00000     0.06299     0.04540 =
      0.04428     0.00733     0.01215     0.01169
C14   1   0.176304   0.296507   0.511408    11.00000     0.08245     0.08470 =
      0.05696     0.01310     0.02428     0.01214
AFIX 43
H14   2   0.142532   0.260314   0.539295    11.00000    -1.20000
AFIX 0
C15   1   0.690459   0.135347   0.364962    11.00000     0.06766     0.05951 =
      0.06130     0.02265    -0.00296     0.01026
AFIX 13
H15   2   0.703478   0.116015   0.407553    11.00000    -1.20000
AFIX 0
PART 1
C16   1   0.106297   0.017128   0.177727    21.00000     0.04954     0.07646 =
      0.07463     0.02052     0.00534     0.00086
AFIX 13
H16   2   0.118827  -0.055521   0.182864    21.00000    -1.20000
AFIX 0
PART 0
C17   1   0.513035   0.561327   0.353055    11.00000     0.06528     0.04469 =
      0.06533     0.00821    -0.00351    -0.00494
AFIX 43
H17   2   0.602470   0.598694   0.365508    11.00000    -1.20000
AFIX 0
C18   1   0.715924   0.263949   0.386363    11.00000     0.07555     0.06861 =
      0.07286     0.01617     0.00218    -0.00002
AFIX 137
H18A  2   0.808190   0.292940   0.411693    11.00000    -1.50000
H18B  2   0.655253   0.293421   0.415044    11.00000    -1.50000
H18C  2   0.700224   0.285853   0.345730    11.00000    -1.50000
AFIX 0
C19   1   0.416429   0.139393   0.380861    11.00000     0.07788     0.04738 =
      0.04878     0.01583     0.01892     0.01937
AFIX 23
H19A  2   0.470513   0.151943   0.426814    11.00000    -1.20000
H19B  2   0.332945   0.088941   0.374875    11.00000    -1.20000
AFIX 0
C20   1   0.077567   0.539951   0.116070    11.00000     0.11060     0.05358 =
      0.06197     0.02354    -0.00001     0.02886
AFIX 43
H20   2   0.039851   0.597376   0.104903    11.00000    -1.20000
AFIX 0
C21   1   0.258218   0.245684   0.468476    11.00000     0.08294     0.06148 =
      0.05214     0.01619     0.02325     0.01498
AFIX 43
H21   2   0.280569   0.177209   0.469824    11.00000    -1.20000
AFIX 0
PART 1
C22   1   0.218688  -0.057566   0.057587    21.00000     0.07072     0.04702 =
      0.05760    -0.00187    -0.00121     0.00787
AFIX 13
H22   2   0.133443  -0.049164   0.030493    21.00000    -1.20000
AFIX 0
PART 0
C23   1   0.144806   0.399829   0.512969    11.00000     0.07729     0.09425 =
      0.06142     0.01464     0.02938     0.03469
AFIX 43
H23   2   0.091852   0.434645   0.542401    11.00000    -1.20000
AFIX 0
C24   1   0.496167  -0.073176   0.322285    11.00000     0.10118     0.04322 =
      0.07735     0.02218     0.02128     0.02406
AFIX 13
H24   2   0.565848  -0.105690   0.299509    11.00000    -1.20000
AFIX 0
PART 1
C25   1   0.331419  -0.041374   0.018139    21.00000     0.08348     0.06157 =
      0.05936     0.00333     0.00778     0.01587
AFIX 137
H25A  2   0.309377  -0.097730  -0.026850    21.00000    -1.50000
H25B  2   0.416962  -0.048015   0.043672    21.00000    -1.50000
H25C  2   0.337589   0.031596   0.013235    21.00000    -1.50000
AFIX 0
PART 0
C26   1   0.359716  -0.142240   0.283971    11.00000     0.10732     0.05212 =
      0.10386     0.02572     0.01825    -0.00678
AFIX 137
H26A  2   0.354921  -0.215348   0.288636    11.00000    -1.50000
H26B  2   0.346598  -0.149327   0.235871    11.00000    -1.50000
H26C  2   0.290142  -0.106343   0.302811    11.00000    -1.50000
AFIX 0
C27   1   0.606778  -0.253675   0.114288    11.00000     0.11095     0.04785 =
      0.09456     0.00840     0.03193     0.03858
PART 1
C28   1   1.094560   0.715561   0.372674    51.00000     0.13327     0.08509 =
      0.10505     0.01526     0.00244     0.03512
AFIX 43
H28   2   1.108229   0.641591   0.362104    51.00000    -1.20000
AFIX 0
PART 0
C29   1   0.791936   0.087141   0.322834    11.00000     0.06152     0.10829 =
      0.11127     0.02920     0.00973     0.03546
AFIX 137
H29A  2   0.882833   0.120350   0.348935    11.00000    -1.50000
H29B  2   0.776949   0.103425   0.280229    11.00000    -1.50000
H29C  2   0.779720   0.007382   0.312916    11.00000    -1.50000
AFIX 0
PART 1
C30   1   0.195070  -0.176309   0.063424    21.00000     0.08732     0.05213 =
      0.07556     0.00096     0.00402     0.00851
AFIX 137
H30A  2   0.173702  -0.231340   0.017982    21.00000    -1.50000
H30B  2   0.120960  -0.183241   0.085612    21.00000    -1.50000
H30C  2   0.275874  -0.188044   0.090332    21.00000    -1.50000
AFIX 0
C31   1   0.862053   0.307092   0.195835    31.00000     0.06363     0.09186 =
      0.12614     0.03519     0.03976     0.00817
AFIX 137
H31A  2   0.928918   0.352456   0.183727    31.00000    -1.50000
H31B  2   0.839065   0.233511   0.161776    31.00000    -1.50000
H31C  2   0.898127   0.301514   0.240388    31.00000    -1.50000
AFIX 0
C32   1   0.101078   0.101739   0.244742    21.00000     0.06120     0.09059 =
      0.08222     0.02418     0.01360     0.00896
AFIX 137
H32A  2   0.020310   0.079956   0.258850    21.00000    -1.50000
H32B  2   0.100019   0.173824   0.239005    21.00000    -1.50000
H32C  2   0.179545   0.105833   0.279476    21.00000    -1.50000
AFIX 0
C33   1  -0.033677  -0.001094   0.127435    21.00000     0.05831     0.10145 =
      0.09606     0.02887     0.01035     0.00422
AFIX 137
H33A  2  -0.105048  -0.018575   0.149140    21.00000    -1.50000
H33B  2  -0.038458  -0.061993   0.085762    21.00000    -1.50000
H33C  2  -0.043951   0.066019   0.116362    21.00000    -1.50000
AFIX 0
C34   1   1.055353   0.937014   0.405059    51.00000     0.13280     0.08443 =
      0.10577     0.01095    -0.00542     0.03375
AFIX 43
H34   2   1.041772   1.011000   0.415561    51.00000    -1.20000
AFIX 0
PART 0
C35   1   0.538736  -0.080988   0.393970    11.00000     0.17797     0.07319 =
      0.09861     0.05066     0.00941     0.02558
AFIX 137
H35A  2   0.526391  -0.158342   0.391211    11.00000    -1.50000
H35B  2   0.484131  -0.041933   0.423247    11.00000    -1.50000
H35C  2   0.632701  -0.047645   0.412953    11.00000    -1.50000
AFIX 0
PART 1
C36   1   0.766493   0.480449   0.247474    31.00000     0.09551     0.07036 =
      0.11472     0.02358     0.04018    -0.00249
AFIX 137
H36A  2   0.836868   0.522773   0.235597    31.00000    -1.50000
H36B  2   0.796085   0.481153   0.294125    31.00000    -1.50000
H36C  2   0.685946   0.513390   0.243741    31.00000    -1.50000
AFIX 0
C37   1   0.647494  -0.257881   0.048224    41.00000     0.11704     0.07851 =
      0.10340     0.01636     0.03620     0.03302
AFIX 137
H37A  2   0.672543  -0.329352   0.028143    41.00000    -1.50000
H37B  2   0.723502  -0.199355   0.057410    41.00000    -1.50000
H37C  2   0.572646  -0.247649   0.016610    41.00000    -1.50000
AFIX 0
C38   1   0.678165   0.368639   0.126450    31.00000     0.09108     0.07947 =
      0.10200     0.03267     0.03590     0.00074
AFIX 137
H38A  2   0.746733   0.410572   0.113241    31.00000    -1.50000
H38B  2   0.600841   0.405801   0.128400    31.00000    -1.50000
H38C  2   0.651125   0.294614   0.093041    31.00000    -1.50000
AFIX 0
C39   1   1.143845   0.905374   0.451567    51.00000     0.13620     0.09070 =
      0.10401     0.01558    -0.00271     0.03594
AFIX 43
H39   2   1.190725   0.957646   0.493735    51.00000    -1.20000
AFIX 0
C40   1   1.007012   0.748099   0.326971    51.00000     0.13330     0.08874 =
      0.11065     0.01484     0.00065     0.03646
AFIX 43
H40   2   0.960415   0.695664   0.284811    51.00000    -1.20000
AFIX 0
C41   1   0.483845  -0.345583   0.099484    41.00000     0.12827     0.05893 =
      0.11577     0.01653     0.03858     0.03403
AFIX 137
H41A  2   0.508371  -0.417737   0.080798    41.00000    -1.50000
H41B  2   0.410805  -0.335802   0.066679    41.00000    -1.50000
H41C  2   0.455277  -0.340815   0.141704    41.00000    -1.50000
AFIX 0
C42   1   0.987616   0.857974   0.343134    51.00000     0.13679     0.08876 =
      0.10728     0.01281    -0.00166     0.03625
AFIX 43
H42   2   0.927898   0.878897   0.311691    51.00000    -1.20000
AFIX 0
C43   1   1.161416   0.795147   0.434426    51.00000     0.13665     0.09175 =
      0.10603     0.01900     0.00207     0.03713
AFIX 43
H43   2   1.220762   0.773853   0.465814    51.00000    -1.20000
AFIX 0
C44   1   0.716228  -0.265333   0.169215    41.00000     0.12853     0.07550 =
      0.10867     0.02642     0.03463     0.04807
AFIX 137
H44A  2   0.743937  -0.336759   0.152718    41.00000    -1.50000
H44B  2   0.682152  -0.260190   0.210045    41.00000    -1.50000
H44C  2   0.792706  -0.206500   0.180066    41.00000    -1.50000
AFIX 0
PART 2
C22B  1   0.263198  -0.043316   0.057277   -21.00000     0.07373     0.04900 =
      0.05930     0.00040     0.00288     0.00878
AFIX 13
H22B  2   0.197023  -0.023475   0.024384   -21.00000    -1.20000
AFIX 0
C25B  1   0.391255  -0.023555   0.029291   -21.00000     0.07499     0.05263 =
      0.05719    -0.00028     0.00234     0.00963
AFIX 137
H1    2   0.380498  -0.077231  -0.016015   -21.00000    -1.50000
H2    2   0.469222  -0.032030   0.059812   -21.00000    -1.50000
H3    2   0.403694   0.050884   0.026671   -21.00000    -1.50000
AFIX 0
C30B  1   0.217785  -0.165545   0.052615   -21.00000     0.07614     0.04929 =
      0.06321    -0.00093     0.00153     0.00706
AFIX 137
H4    2   0.218757  -0.214944   0.007501   -21.00000    -1.50000
H6    2   0.127437  -0.174454   0.060337   -21.00000    -1.50000
H7    2   0.278844  -0.183435   0.087122   -21.00000    -1.50000
AFIX 0
C16B  1   0.085755   0.000414   0.153113   -21.00000     0.05480     0.07845 =
      0.07753     0.02045     0.00837     0.00448
AFIX 13
H16B  2   0.041609   0.056959   0.138672   -21.00000    -1.20000
AFIX 0
C33B  1  -0.035291  -0.078957   0.097266   -21.00000     0.05677     0.08757 =
      0.08519     0.02464     0.00995     0.00473
AFIX 137
H11   2  -0.110977  -0.088934   0.117919   -21.00000    -1.50000
H13   2  -0.009543  -0.150294   0.077637   -21.00000    -1.50000
H18   2  -0.060597  -0.046981   0.061528   -21.00000    -1.50000
AFIX 0
C32B  1   0.097738  -0.007796   0.226179   -21.00000     0.05337     0.08312 =
      0.07858     0.02225     0.00848     0.00418
AFIX 137
H19   2   0.009568  -0.034238   0.231622   -21.00000    -1.50000
H25   2   0.133540   0.064883   0.260061   -21.00000    -1.50000
H26   2   0.157585  -0.059154   0.232429   -21.00000    -1.50000
AFIX 0
C36B  1   0.819164   0.441577   0.268794   -31.00000     0.08203     0.06397 =
      0.10934     0.02055     0.03625    -0.00428
AFIX 137
H27   2   0.892729   0.487630   0.261586   -31.00000    -1.50000
H29   2   0.854985   0.399366   0.297002   -31.00000    -1.50000
H30   2   0.761747   0.488311   0.291651   -31.00000    -1.50000
AFIX 0
C38B  1   0.673006   0.459355   0.187394   -31.00000     0.08784     0.07320 =
      0.10773     0.02798     0.03790     0.00024
AFIX 137
H31   2   0.737254   0.506708   0.175085   -31.00000    -1.50000
H32   2   0.649745   0.501630   0.229322   -31.00000    -1.50000
H33   2   0.592579   0.431842   0.150837   -31.00000    -1.50000
AFIX 0
C31B  1   0.832002   0.288166   0.165564   -31.00000     0.05748     0.07412 =
      0.10722     0.02323     0.03353     0.00122
AFIX 137
H35   2   0.900256   0.334022   0.154613   -31.00000    -1.50000
H36   2   0.781687   0.230527   0.123966   -31.00000    -1.50000
H37   2   0.874713   0.254362   0.197406   -31.00000    -1.50000
AFIX 0
C44B  1   0.752501  -0.257720   0.143473   -41.00000     0.11922     0.06413 =
      0.10066     0.01909     0.03398     0.04483
AFIX 137
H38   2   0.771269  -0.331516   0.123091   -41.00000    -1.50000
H41   2   0.767124  -0.240221   0.192743   -41.00000    -1.50000
H44   2   0.811861  -0.203994   0.133156   -41.00000    -1.50000
AFIX 0
C37B  1   0.580210  -0.288054   0.036796   -41.00000     0.11824     0.06316 =
      0.10444     0.01339     0.03516     0.03422
AFIX 137
H47   2   0.604896  -0.360315   0.018675   -41.00000    -1.50000
H48   2   0.633291  -0.233964   0.023762   -41.00000    -1.50000
H49   2   0.485459  -0.291862   0.018379   -41.00000    -1.50000
AFIX 0
C41B  1   0.522970  -0.326057   0.142948   -41.00000     0.12615     0.05905 =
      0.10622     0.01690     0.03608     0.04031
AFIX 137
H50   2   0.539869  -0.401526   0.127149   -41.00000    -1.50000
H51   2   0.428299  -0.325376   0.127326   -41.00000    -1.50000
H52   2   0.547341  -0.297382   0.192619   -41.00000    -1.50000
AFIX 0
C28B  1   1.178761   0.746229   0.406593   -51.00000     0.13455     0.08434 =
      0.10257     0.01353     0.00115     0.03422
AFIX 43
H28B  2   1.238253   0.697915   0.413414   -51.00000    -1.20000
AFIX 0
C43B  1   1.207725   0.859785   0.445599   -51.00000     0.13712     0.08814 =
      0.10353     0.01448     0.00090     0.03530
AFIX 43
H43B  2   1.287392   0.890288   0.479572   -51.00000    -1.20000
AFIX 0
C39B  1   1.113342   0.925778   0.431904   -51.00000     0.13693     0.08938 =
      0.10704     0.01520    -0.00055     0.03599
AFIX 43
H39B  2   1.129943   1.001966   0.457092   -51.00000    -1.20000
AFIX 0
C34B  1   0.994642   0.879870   0.381248   -51.00000     0.13681     0.09034 =
      0.10793     0.01543    -0.00032     0.03677
AFIX 43
H34B  2   0.934676   0.927677   0.374096   -51.00000    -1.20000
AFIX 0
C42B  1   0.958994   0.767971   0.340559   -51.00000     0.13639     0.09028 =
      0.10857     0.01570     0.00148     0.03635
AFIX 43
H42B  2   0.879360   0.737188   0.306593   -51.00000    -1.20000
AFIX 0
C40B  1   1.058065   0.708316   0.357362   -51.00000     0.13345     0.08575 =
      0.10466     0.01455     0.00058     0.03488
AFIX 43
H40B  2   1.041088   0.632178   0.332033   -51.00000    -1.20000
AFIX 0
PART 0
HKLF 4
END
