TITL CrystalPilot n0161 in P -1
REM CrystalPilot node n0161 tool=add_atoms_from_difference_map
REM R1 = 0.0664 wR2 = 0.2024 GooF = 1.01
CELL 0.71073 10.15540 12.70750 20.80080 107.6910 100.3150 96.2330
ZERR 2 0.00170 0.00210 0.00440 0.0030 0.0030 0.0020
LATT 1
SFAC C H N P Ni La
UNIT 96.0 138.0 8.0 4.0 2.0 2.0

DFIX 1.3900 0.010 C28 C40
DFIX 1.3900 0.010 C40 C42
DFIX 1.3900 0.010 C42 C34
DFIX 1.3900 0.010 C34 C39
DFIX 1.3900 0.010 C39 C43
DFIX 1.3900 0.010 C43 C28
DFIX 1.3900 0.010 C28B C40B
DFIX 1.3900 0.010 C40B C42B
DFIX 1.3900 0.010 C42B C34B
DFIX 1.3900 0.010 C34B C39B
DFIX 1.3900 0.010 C39B C43B
DFIX 1.3900 0.010 C43B C28B
FLAT 0.01 C28 C40 C42 C34 C39 C43
FLAT 0.01 C28B C40B C42B C34B C39B C43B
SADI 0.020 P1 C22 P1 C16 P1 C22B P1 C16B
SADI 0.020 C22 C25 C22 C30 C16 C33 C16 C32 C22B C25B C22B C30B C16B C33B =
 C16B C32B
SIMU 0.010 0.020 P1 C22 C25 C30 C16 C33 C32 C22B C25B C30B C16B C33B C32B
SADI 0.020 C11 C36 C11 C38 C11 C31 C11 C36B C11 C38B C11 C31B
SIMU 0.010 0.020 C11 C36 C38 C31 C36B C38B C31B
SADI 0.020 C27 C44 C27 C37 C27 C41 C27 C44B C27 C37B C27 C41B
SIMU 0.010 0.020 C27 C44 C37 C41 C44B C37B C41B
SIMU 0.010 0.020 C28 C40 C42 C34 C39 C43 C28B C40B C42B C34B C39B C43B

WGHT 0.069430 14.286560
FVAR 0.19075 0.87736 0.78389 0.80647 0.71748
LA1   6   0.429131   0.291511   0.269793    11.00000     0.04333     0.03289 =
      0.04283     0.00572     0.00734     0.00972
NI1   5   0.466918   0.070244   0.207488    11.00000     0.05003     0.03190 =
      0.04661     0.00552     0.01028     0.01115
P1    4   0.260805   0.052360   0.145795    11.00000     0.05192     0.03325 =
      0.04709     0.00270     0.00464     0.00658
P2    4   0.511682   0.071639   0.314985    11.00000     0.06031     0.03579 =
      0.04922     0.00988     0.00952     0.01500
N1    3   0.251845   0.281102   0.169978    11.00000     0.05646     0.03273 =
      0.04786     0.00700     0.00345     0.01069
N2    3   0.383348   0.247091   0.375642    11.00000     0.06482     0.04120 =
      0.04813     0.01024     0.01622     0.01624
N3    3   0.627376   0.295449   0.216848    11.00000     0.04642     0.04346 =
      0.05478     0.01068     0.00970     0.00347
C1    1   0.294852   0.493793   0.270060    11.00000     0.05506     0.03503 =
      0.04909     0.00589     0.00365     0.01290
C45   1   0.117029   0.348937   0.082922    11.00000     0.07571     0.04724 =
      0.04195     0.00929     0.00327     0.01107
AFIX 43
H45   2   0.103977   0.279762   0.048292    11.00000    -1.20000
AFIX 0
C46   1   0.245448   0.449652   0.316166    11.00000     0.05375     0.04179 =
      0.04658     0.00498     0.00452     0.01556
AFIX 43
H46   2   0.155592   0.413426   0.304457    11.00000    -1.20000
AFIX 0
C47   1   0.327960   0.458363   0.380252    11.00000     0.05771     0.03573 =
      0.04216     0.00181     0.00757     0.01461
C2    1   0.195055   0.362992   0.149843    11.00000     0.05457     0.03843 =
      0.04545     0.01317     0.00542     0.00962
C3    1   0.569867  -0.144192   0.142640    11.00000     0.08448     0.03380 =
      0.05612     0.00593     0.02086     0.02616
C48   1   0.211896   0.472423   0.199064    11.00000     0.05170     0.03807 =
      0.04637     0.00923     0.00683     0.00585
C4    1   0.593983   0.187942   0.192771    11.00000     0.05122     0.04663 =
      0.05767     0.01269     0.01231     0.01270
C5    1   0.429192   0.550702   0.289196    11.00000     0.06388     0.03788 =
      0.06562     0.01382     0.00754     0.00433
AFIX 43
H5    2   0.463332   0.581886   0.259188    11.00000    -1.20000
AFIX 0
C6    1   0.274343   0.401998   0.425818    11.00000     0.06333     0.04968 =
      0.04180     0.00469     0.00655     0.01873
C7    1   0.219273   0.170827   0.115541    11.00000     0.07384     0.04083 =
      0.04894     0.00470    -0.00169     0.01430
AFIX 23
H7A   2   0.122940   0.155890   0.094461    11.00000    -1.20000
H7B   2   0.268365   0.173658   0.079985    11.00000    -1.20000
AFIX 0
C8    1   0.154010   0.557846   0.182595    11.00000     0.08124     0.04265 =
      0.06149     0.01532     0.00469     0.01665
AFIX 43
H8    2   0.166323   0.627893   0.216312    11.00000    -1.20000
AFIX 0
N4    3   0.529862  -0.061600   0.166175    11.00000     0.07310     0.06013 =
      0.06708     0.01743     0.01475     0.01394
C9    1   0.193778   0.450760   0.469706    11.00000     0.07312     0.06996 =
      0.05095     0.00522     0.01737     0.02965
AFIX 43
H9    2   0.171809   0.520101   0.470150    11.00000    -1.20000
AFIX 0
C10   1   0.459920   0.515132   0.396983    11.00000     0.06859     0.04655 =
      0.04938     0.00069    -0.00491     0.00974
AFIX 43
H10   2   0.515088   0.522491   0.439473    11.00000    -1.20000
AFIX 0
C11   1   0.735807   0.360452   0.198454    11.00000     0.06572     0.05757 =
      0.09770     0.01763     0.03250    -0.00335
C12   1   0.059754   0.435228   0.067690    11.00000     0.10090     0.06258 =
      0.05204     0.02495    -0.00619     0.01132
AFIX 43
H12   2   0.007818   0.421753   0.023460    11.00000    -1.20000
AFIX 0
C13   1   0.309752   0.295006   0.422048    11.00000     0.06298     0.04540 =
      0.04432     0.00733     0.01216     0.01168
C14   1   0.176304   0.296507   0.511408    11.00000     0.08240     0.08476 =
      0.05693     0.01305     0.02428     0.01216
AFIX 43
H14   2   0.142532   0.260314   0.539295    11.00000    -1.20000
AFIX 0
C15   1   0.690459   0.135347   0.364962    11.00000     0.06770     0.05951 =
      0.06134     0.02265    -0.00298     0.01027
AFIX 13
H15   2   0.703478   0.116015   0.407552    11.00000    -1.20000
AFIX 0
PART 1
C16   1   0.106297   0.017128   0.177728    21.00000     0.04958     0.07644 =
      0.07461     0.02052     0.00538     0.00089
AFIX 13
H16   2   0.118826  -0.055521   0.182864    21.00000    -1.20000
AFIX 0
PART 0
C17   1   0.513035   0.561327   0.353055    11.00000     0.06520     0.04469 =
      0.06537     0.00817    -0.00354    -0.00493
AFIX 43
H17   2   0.602470   0.598694   0.365508    11.00000    -1.20000
AFIX 0
C18   1   0.715924   0.263949   0.386363    11.00000     0.07557     0.06861 =
      0.07277     0.01620     0.00218    -0.00003
AFIX 137
H18A  2   0.808190   0.292940   0.411693    11.00000    -1.50000
H18B  2   0.655253   0.293421   0.415044    11.00000    -1.50000
H18C  2   0.700224   0.285853   0.345730    11.00000    -1.50000
AFIX 0
C19   1   0.416429   0.139393   0.380860    11.00000     0.07778     0.04737 =
      0.04881     0.01593     0.01898     0.01932
AFIX 23
H19A  2   0.470513   0.151943   0.426814    11.00000    -1.20000
H19B  2   0.332945   0.088941   0.374875    11.00000    -1.20000
AFIX 0
C20   1   0.077567   0.539950   0.116070    11.00000     0.11059     0.05359 =
      0.06200     0.02361     0.00003     0.02885
AFIX 43
H20   2   0.039851   0.597376   0.104903    11.00000    -1.20000
AFIX 0
C21   1   0.258218   0.245684   0.468476    11.00000     0.08293     0.06149 =
      0.05214     0.01618     0.02327     0.01497
AFIX 43
H21   2   0.280569   0.177209   0.469824    11.00000    -1.20000
AFIX 0
PART 1
C22   1   0.218688  -0.057566   0.057588    21.00000     0.07072     0.04706 =
      0.05760    -0.00187    -0.00122     0.00789
AFIX 13
H22   2   0.133443  -0.049164   0.030493    21.00000    -1.20000
AFIX 0
PART 0
C23   1   0.144806   0.399830   0.512969    11.00000     0.07729     0.09426 =
      0.06142     0.01464     0.02936     0.03470
AFIX 43
H23   2   0.091852   0.434645   0.542401    11.00000    -1.20000
AFIX 0
C24   1   0.496167  -0.073176   0.322285    11.00000     0.10110     0.04329 =
      0.07737     0.02221     0.02130     0.02411
AFIX 13
H24   2   0.565849  -0.105690   0.299508    11.00000    -1.20000
AFIX 0
PART 1
C25   1   0.331419  -0.041373   0.018138    21.00000     0.08350     0.06160 =
      0.05936     0.00332     0.00776     0.01588
AFIX 137
H25A  2   0.309377  -0.097730  -0.026850    21.00000    -1.50000
H25B  2   0.416962  -0.048015   0.043672    21.00000    -1.50000
H25C  2   0.337589   0.031596   0.013235    21.00000    -1.50000
AFIX 0
PART 0
C26   1   0.359716  -0.142240   0.283971    11.00000     0.10732     0.05213 =
      0.10384     0.02574     0.01830    -0.00679
AFIX 137
H26A  2   0.354921  -0.215348   0.288635    11.00000    -1.50000
H26B  2   0.346598  -0.149327   0.235871    11.00000    -1.50000
H26C  2   0.290143  -0.106344   0.302811    11.00000    -1.50000
AFIX 0
C27   1   0.606778  -0.253674   0.114287    11.00000     0.11089     0.04782 =
      0.09467     0.00839     0.03200     0.03862
PART 1
C28   1   1.094561   0.715560   0.372674    51.00000     0.13332     0.08507 =
      0.10504     0.01528     0.00250     0.03516
AFIX 43
H28   2   1.108229   0.641591   0.362104    51.00000    -1.20000
AFIX 0
PART 0
C29   1   0.791936   0.087141   0.322834    11.00000     0.06151     0.10836 =
      0.11127     0.02917     0.00974     0.03547
AFIX 137
H29A  2   0.882833   0.120349   0.348935    11.00000    -1.50000
H29B  2   0.776949   0.103425   0.280230    11.00000    -1.50000
H29C  2   0.779720   0.007382   0.312917    11.00000    -1.50000
AFIX 0
PART 1
C30   1   0.195070  -0.176309   0.063423    21.00000     0.08732     0.05217 =
      0.07548     0.00094     0.00402     0.00847
AFIX 137
H30A  2   0.173702  -0.231340   0.017982    21.00000    -1.50000
H30B  2   0.120960  -0.183241   0.085612    21.00000    -1.50000
H30C  2   0.275874  -0.188044   0.090332    21.00000    -1.50000
AFIX 0
C31   1   0.862053   0.307092   0.195834    31.00000     0.06371     0.09183 =
      0.12627     0.03506     0.03994     0.00818
AFIX 137
H31A  2   0.928918   0.352456   0.183727    31.00000    -1.50000
H31B  2   0.839065   0.233511   0.161776    31.00000    -1.50000
H31C  2   0.898127   0.301514   0.240388    31.00000    -1.50000
AFIX 0
C32   1   0.101078   0.101738   0.244741    21.00000     0.06125     0.09057 =
      0.08223     0.02433     0.01355     0.00894
AFIX 137
H32A  2   0.020310   0.079956   0.258849    21.00000    -1.50000
H32B  2   0.100019   0.173824   0.239005    21.00000    -1.50000
H32C  2   0.179545   0.105833   0.279476    21.00000    -1.50000
AFIX 0
C33   1  -0.033678  -0.001093   0.127434    21.00000     0.05839     0.10149 =
      0.09610     0.02892     0.01044     0.00428
AFIX 137
H33A  2  -0.105048  -0.018575   0.149140    21.00000    -1.50000
H33B  2  -0.038458  -0.061993   0.085761    21.00000    -1.50000
H33C  2  -0.043951   0.066019   0.116362    21.00000    -1.50000
AFIX 0
C34   1   1.055353   0.937015   0.405058    51.00000     0.13280     0.08444 =
      0.10580     0.01093    -0.00544     0.03371
AFIX 43
H34   2   1.041772   1.011000   0.415561    51.00000    -1.20000
AFIX 0
PART 0
C35   1   0.538736  -0.080988   0.393969    11.00000     0.17802     0.07319 =
      0.09865     0.05068     0.00930     0.02545
AFIX 137
H35A  2   0.526391  -0.158342   0.391210    11.00000    -1.50000
H35B  2   0.484131  -0.041933   0.423247    11.00000    -1.50000
H35C  2   0.632701  -0.047645   0.412953    11.00000    -1.50000
AFIX 0
PART 1
C36   1   0.766493   0.480449   0.247473    31.00000     0.09521     0.07046 =
      0.11484     0.02382     0.03991    -0.00248
AFIX 137
H36A  2   0.836868   0.522773   0.235597    31.00000    -1.50000
H36B  2   0.796085   0.481153   0.294125    31.00000    -1.50000
H36C  2   0.685946   0.513390   0.243741    31.00000    -1.50000
AFIX 0
C37   1   0.647493  -0.257881   0.048224    41.00000     0.11732     0.07857 =
      0.10351     0.01643     0.03657     0.03330
AFIX 137
H37A  2   0.672543  -0.329352   0.028143    41.00000    -1.50000
H37B  2   0.723502  -0.199355   0.057410    41.00000    -1.50000
H37C  2   0.572646  -0.247649   0.016610    41.00000    -1.50000
AFIX 0
C38   1   0.678165   0.368639   0.126449    31.00000     0.09090     0.07952 =
      0.10209     0.03268     0.03581     0.00081
AFIX 137
H38A  2   0.746733   0.410572   0.113241    31.00000    -1.50000
H38B  2   0.600841   0.405801   0.128400    31.00000    -1.50000
H38C  2   0.651125   0.294614   0.093041    31.00000    -1.50000
AFIX 0
C39   1   1.143845   0.905374   0.451567    51.00000     0.13622     0.09070 =
      0.10402     0.01557    -0.00272     0.03595
AFIX 43
H39   2   1.190725   0.957646   0.493735    51.00000    -1.20000
AFIX 0
C40   1   1.007012   0.748099   0.326970    51.00000     0.13334     0.08874 =
      0.11069     0.01484     0.00067     0.03651
AFIX 43
H40   2   0.960415   0.695664   0.284811    51.00000    -1.20000
AFIX 0
C41   1   0.483845  -0.345584   0.099484    41.00000     0.12818     0.05899 =
      0.11587     0.01674     0.03856     0.03408
AFIX 137
H41A  2   0.508371  -0.417737   0.080798    41.00000    -1.50000
H41B  2   0.410805  -0.335802   0.066679    41.00000    -1.50000
H41C  2   0.455276  -0.340815   0.141704    41.00000    -1.50000
AFIX 0
C42   1   0.987615   0.857974   0.343134    51.00000     0.13683     0.08878 =
      0.10731     0.01285    -0.00162     0.03629
AFIX 43
H42   2   0.927898   0.878897   0.311691    51.00000    -1.20000
AFIX 0
C43   1   1.161416   0.795146   0.434427    51.00000     0.13669     0.09177 =
      0.10607     0.01903     0.00212     0.03717
AFIX 43
H43   2   1.220762   0.773853   0.465814    51.00000    -1.20000
AFIX 0
C44   1   0.716228  -0.265334   0.169215    41.00000     0.12828     0.07549 =
      0.10874     0.02636     0.03434     0.04779
AFIX 137
H44A  2   0.743937  -0.336759   0.152718    41.00000    -1.50000
H44B  2   0.682151  -0.260190   0.210045    41.00000    -1.50000
H44C  2   0.792706  -0.206500   0.180066    41.00000    -1.50000
AFIX 0
PART 2
C22B  1   0.263198  -0.043316   0.057277   -21.00000     0.07377     0.04904 =
      0.05927     0.00047     0.00300     0.00894
AFIX 13
H22B  2   0.197023  -0.023475   0.024384   -21.00000    -1.20000
AFIX 0
C25B  1   0.391255  -0.023554   0.029291   -21.00000     0.07504     0.05267 =
      0.05717    -0.00023     0.00242     0.00975
AFIX 137
H1    2   0.380498  -0.077231  -0.016015   -21.00000    -1.50000
H2    2   0.469222  -0.032030   0.059812   -21.00000    -1.50000
H3    2   0.403694   0.050884   0.026671   -21.00000    -1.50000
AFIX 0
C30B  1   0.217785  -0.165545   0.052614   -21.00000     0.07622     0.04935 =
      0.06316    -0.00086     0.00169     0.00724
AFIX 137
H4    2   0.218757  -0.214944   0.007501   -21.00000    -1.50000
H6    2   0.127437  -0.174454   0.060337   -21.00000    -1.50000
H7    2   0.278844  -0.183435   0.087122   -21.00000    -1.50000
AFIX 0
C16B  1   0.085755   0.000414   0.153113   -21.00000     0.05489     0.07843 =
      0.07753     0.02063     0.00851     0.00465
AFIX 13
H16B  2   0.041609   0.056959   0.138673   -21.00000    -1.20000
AFIX 0
C33B  1  -0.035291  -0.078957   0.097266   -21.00000     0.05683     0.08755 =
      0.08520     0.02476     0.01001     0.00484
AFIX 137
H11   2  -0.110977  -0.088934   0.117919   -21.00000    -1.50000
H13   2  -0.009543  -0.150294   0.077637   -21.00000    -1.50000
H18   2  -0.060597  -0.046981   0.061528   -21.00000    -1.50000
AFIX 0
C32B  1   0.097738  -0.007796   0.226179   -21.00000     0.05349     0.08310 =
      0.07856     0.02247     0.00866     0.00437
AFIX 137
H19   2   0.009568  -0.034238   0.231622   -21.00000    -1.50000
H25   2   0.133540   0.064883   0.260061   -21.00000    -1.50000
H26   2   0.157585  -0.059154   0.232429   -21.00000    -1.50000
AFIX 0
C36B  1   0.819164   0.441577   0.268794   -31.00000     0.08166     0.06403 =
      0.10947     0.02077     0.03616    -0.00393
AFIX 137
H27   2   0.892729   0.487630   0.261586   -31.00000    -1.50000
H29   2   0.854985   0.399366   0.297002   -31.00000    -1.50000
H30   2   0.761747   0.488311   0.291651   -31.00000    -1.50000
AFIX 0
C38B  1   0.673006   0.459355   0.187394   -31.00000     0.08749     0.07325 =
      0.10784     0.02806     0.03767     0.00034
AFIX 137
H31   2   0.737254   0.506708   0.175085   -31.00000    -1.50000
H32   2   0.649746   0.501630   0.229322   -31.00000    -1.50000
H33   2   0.592579   0.431842   0.150837   -31.00000    -1.50000
AFIX 0
C31B  1   0.832002   0.288166   0.165563   -31.00000     0.05770     0.07405 =
      0.10727     0.02313     0.03394     0.00134
AFIX 137
H35   2   0.900256   0.334022   0.154613   -31.00000    -1.50000
H36   2   0.781687   0.230527   0.123966   -31.00000    -1.50000
H37   2   0.874713   0.254362   0.197406   -31.00000    -1.50000
AFIX 0
C44B  1   0.752502  -0.257720   0.143473   -41.00000     0.11905     0.06404 =
      0.10080     0.01877     0.03393     0.04459
AFIX 137
H38   2   0.771269  -0.331516   0.123091   -41.00000    -1.50000
H41   2   0.767124  -0.240221   0.192743   -41.00000    -1.50000
H44   2   0.811861  -0.203994   0.133156   -41.00000    -1.50000
AFIX 0
C37B  1   0.580209  -0.288054   0.036796   -41.00000     0.11843     0.06319 =
      0.10453     0.01350     0.03560     0.03455
AFIX 137
H47   2   0.604896  -0.360315   0.018675   -41.00000    -1.50000
H48   2   0.633291  -0.233964   0.023762   -41.00000    -1.50000
H49   2   0.485459  -0.291862   0.018379   -41.00000    -1.50000
AFIX 0
C41B  1   0.522970  -0.326057   0.142948   -41.00000     0.12586     0.05911 =
      0.10632     0.01714     0.03583     0.04022
AFIX 137
H50   2   0.539869  -0.401526   0.127149   -41.00000    -1.50000
H51   2   0.428298  -0.325376   0.127326   -41.00000    -1.50000
H52   2   0.547341  -0.297382   0.192619   -41.00000    -1.50000
AFIX 0
C28B  1   1.178761   0.746229   0.406593   -51.00000     0.13459     0.08432 =
      0.10255     0.01354     0.00119     0.03425
AFIX 43
H28B  2   1.238253   0.697915   0.413414   -51.00000    -1.20000
AFIX 0
C43B  1   1.207725   0.859785   0.445599   -51.00000     0.13714     0.08814 =
      0.10353     0.01449     0.00094     0.03534
AFIX 43
H43B  2   1.287392   0.890288   0.479572   -51.00000    -1.20000
AFIX 0
C39B  1   1.113342   0.925778   0.431903   -51.00000     0.13695     0.08939 =
      0.10706     0.01521    -0.00054     0.03601
AFIX 43
H39B  2   1.129943   1.001966   0.457092   -51.00000    -1.20000
AFIX 0
C34B  1   0.994642   0.879870   0.381248   -51.00000     0.13684     0.09036 =
      0.10795     0.01546    -0.00031     0.03680
AFIX 43
H34B  2   0.934676   0.927677   0.374096   -51.00000    -1.20000
AFIX 0
C42B  1   0.958994   0.767971   0.340559   -51.00000     0.13644     0.09029 =
      0.10860     0.01572     0.00152     0.03639
AFIX 43
H42B  2   0.879360   0.737188   0.306593   -51.00000    -1.20000
AFIX 0
C40B  1   1.058066   0.708316   0.357361   -51.00000     0.13349     0.08574 =
      0.10467     0.01454     0.00062     0.03491
AFIX 43
H40B  2   1.041088   0.632178   0.332033   -51.00000    -1.20000
AFIX 0
PART 0
H0    2   0.359200   0.852200   0.845600    11.00000     0.06000
HKLF 4
END
