TITL CrystalPilot n0010 in I 41/a m d :2
REM CrystalPilot node n0010 tool=refine
REM R1 = 0.1035 wR2 = 0.3073 GooF = 2.284
CELL 1.54178 15.85170 15.85170 57.50380 90.0000 90.0000 90.0000
ZERR 4 0.00010 0.00010 0.00130 0.0000 0.0000 0.0000
LATT 2
SYMM -Y+1/4,X+3/4,Z+1/4
SYMM Y+1/4,-X+1/4,Z+3/4
SYMM X,-Y,-Z
SYMM -X,Y+1/2,-Z
SYMM -X,-Y+1/2,Z
SYMM Y+1/4,X+3/4,-Z+1/4
SYMM -Y+1/4,-X+1/4,-Z+3/4
SFAC C H O Zr
UNIT 272.0 144.0 128.0 24.0

WGHT 0.100000 0.000000
FVAR 0.12705
FE01  4   0.000000   0.250000   0.331549    10.25000     0.05399     0.03136 =
      0.03604     0.00000    -0.00000    -0.00000
ZR02  4   0.110263   0.360263   0.375000    10.50000     0.06237     0.06237 =
      0.04236    -0.00310     0.00310    -0.02916
O004  3   0.126624   0.250000   0.350629    10.50000     0.04787     0.07384 =
      0.04968     0.00000     0.01193    -0.00000
O005  3   0.088968   0.335216   0.436943    11.00000     0.05947     0.09805 =
      0.06719    -0.02043    -0.01497    -0.01203
O006  3   0.161639   0.403237   0.408169    11.00000     0.10976     0.14470 =
      0.05687    -0.01496    -0.01232    -0.06636
O007  3   0.074744   0.500454   0.374366    11.00000     0.35212     0.06430 =
      0.06971    -0.00980     0.03000    -0.08887
C008  1   0.216764   0.386494   0.468592    11.00000     0.06528     0.13789 =
      0.06475    -0.03319    -0.00745    -0.00785
AFIX 43
H008  2   0.175483   0.349827   0.474060    11.00000    -1.20000
AFIX 0
C009  1   0.213204   0.416395   0.445902    11.00000     0.06364     0.10917 =
      0.06985    -0.02558    -0.00316    -0.01438
C00A  1   0.149156   0.383397   0.429059    11.00000     0.06193     0.10827 =
      0.06211    -0.00930    -0.00339    -0.01508
C00B  1   0.500000   0.471006   0.477626    10.50000     0.05229     0.14044 =
      0.07704    -0.04629    -0.00000    -0.00000
AFIX 43
H00B  2   0.500000   0.447700   0.462784    10.50000    -1.20000
AFIX 0
C00D  1   0.345262   0.468187   0.474509    11.00000     0.04754     0.13027 =
      0.07642    -0.04781    -0.00550    -0.00037
C00E  1   0.422273   0.487477   0.488114    11.00000     0.05025     0.13695 =
      0.06799    -0.04617    -0.00160    -0.00887
C00F  1   0.273282   0.474442   0.437670    11.00000     0.07283     0.11910 =
      0.08426    -0.01300    -0.01329    -0.02781
AFIX 43
H00F  2   0.268365   0.496604   0.422757    11.00000    -1.20000
AFIX 0
O5X   3   0.000000   0.156627   0.356495    10.50000     0.06208     0.03256 =
      0.03967     0.00283    -0.00000    -0.00000
C8X   1   0.161857   0.032916   0.733224    11.00000     0.12907     0.05887 =
      0.07357    -0.00409    -0.03495     0.00344
AFIX 43
H8X   2   0.142098   0.035976   0.748429    11.00000    -1.20000
AFIX 0
C9X   1   0.160539   0.001565   0.048262    11.00000     0.07178     0.12827 =
      0.08795    -0.01958    -0.01489    -0.01996
AFIX 43
H9X   2   0.119524  -0.034951   0.053954    11.00000    -1.20000
AFIX 0
HKLF 4
END
