TITL CrystalPilot n0017 in C 2 2 21
REM CrystalPilot node n0017 tool=refine
REM R1 = 0.0552 wR2 = 0.1729 GooF = 1.54
CELL 0.68914 15.79000 32.31000 11.86000 90.0000 90.0000 90.0000
ZERR 8 0 0 0 0 0 0
LATT -7
SYMM X,-Y,-Z
SYMM -X,Y,-Z+1/2
SYMM -X,-Y,Z+1/2
SFAC C O Cu
UNIT 216.0 32.0 8.0

WGHT 0.100000 0.000000
FVAR 0.28066
CU1   3   0.069035   0.019830   0.363610    11.00000     0.03972     0.02066 =
      0.08313     0.00088    -0.01852    -0.00173
C1    1   0.071552   0.294484   0.210653    11.00000     0.03301     0.01753 =
      0.04915    -0.00443     0.01077    -0.00131
C2    1   0.000000   0.272166   0.250000    10.50000     0.03279     0.01497 =
      0.04985     0.00000     0.00533    -0.00000
C3    1   0.000000   0.405793   0.250000    10.50000     0.08378     0.00924 =
      0.04763     0.00000     0.00457    -0.00000
O1    2   0.159140   0.046639   0.449580    11.00000     0.04862     0.04717 =
      0.07848     0.00296    -0.02269    -0.02104
C4    1   0.000000   0.360091   0.250000    10.50000     0.04640     0.01640 =
      0.04828     0.00000     0.00851    -0.00000
C5    1   0.071851   0.337795   0.211283    11.00000     0.03864     0.02258 =
      0.04475    -0.00278     0.00627    -0.00471
O2    2   0.031700   0.076350   0.335822    11.00000     0.08454     0.02118 =
      0.09223     0.00198    -0.02958     0.00425
C6    1   0.000000   0.140503   0.250000    10.50000     0.05742     0.01590 =
      0.05948     0.00000    -0.01188    -0.00000
O3    2   0.000000  -0.002047   0.250000    10.50000     0.10266     0.02336 =
      0.15862     0.00000    -0.08038    -0.00000
C7    1   0.217900   0.218498   0.063304    11.00000     0.12313     0.11184 =
      0.04107     0.00123     0.01380     0.08329
O4    2   0.122905   0.033784   0.628672    11.00000     0.05608     0.03648 =
      0.09266    -0.01312     0.03086    -0.02229
C8    1   0.148319   0.271234   0.175510    11.00000     0.04356     0.02994 =
      0.04865    -0.00606     0.01602     0.00112
C9    1   0.000000   0.226589   0.250000    10.50000     0.04045     0.01803 =
      0.05005     0.00000     0.00370    -0.00000
C10   1   0.229516   0.083121   0.592223    11.00000     0.04086     0.03283 =
      0.05624    -0.00097     0.00115    -0.01205
C11   1   0.145077   0.362562   0.168781    11.00000     0.04521     0.03602 =
      0.04994    -0.00195     0.00208    -0.01958
C12   1   0.168727   0.362102   0.055094    11.00000     0.04014     0.04373 =
      0.04915    -0.00137     0.00640    -0.01487
C13   1   0.122343   0.333380   0.725082    11.00000     0.14407     0.14949 =
      0.06094    -0.01529    -0.00947     0.10427
C14   1   0.146280   0.242956   0.085433    11.00000     0.09436     0.04833 =
      0.04246    -0.00342     0.01553     0.02856
C15   1   0.206773   0.249857   0.718706    11.00000     0.05606     0.10318 =
      0.06809    -0.01263    -0.01239     0.03216
C16   1   0.229888   0.389913   0.017067    11.00000     0.04581     0.03252 =
      0.05827    -0.00285     0.01357    -0.01111
C17   1   0.054320   0.161784   0.321603    11.00000     0.06119     0.02543 =
      0.06838    -0.00236    -0.02112     0.00256
C18   1   0.055104   0.204435   0.319613    11.00000     0.04532     0.02397 =
      0.06283    -0.00090    -0.01358     0.00252
C19   1   0.222237   0.274633   0.236859    11.00000     0.03550     0.07527 =
      0.07451    -0.00836     0.00647     0.01209
C20   1   0.003025   0.427554   0.150428    11.00000     0.16085     0.02182 =
      0.04271     0.00259     0.01524    -0.00039
O5    2   0.030536   0.000000   0.000000    10.50000     0.03734     0.13147 =
      0.15681    -0.03546    -0.00000    -0.00000
C21   1   0.210355   0.278948   0.630003    11.00000     0.10228     0.13001 =
      0.05302    -0.00819    -0.02322     0.08408
C22   1   0.188255   0.388103   0.244379    11.00000     0.08117     0.05052 =
      0.04778    -0.00375    -0.00722    -0.03194
C23   1   0.000000   0.492215   0.250000    10.50000     0.61384     0.02039 =
      0.05172     0.00000     0.07224    -0.00000
C24   1   0.000000   0.092644   0.250000    10.50000     0.06277     0.02375 =
      0.07314     0.00000    -0.02049    -0.00000
C25   1   0.251126   0.084314   0.707639    11.00000     0.06480     0.04746 =
      0.05725     0.00115     0.00549    -0.02960
C26   1   0.005766   0.470229   0.150224    11.00000     0.39962     0.02344 =
      0.04769     0.00581     0.04114     0.00713
C27   1   0.109901   0.318156   0.513435    11.00000     0.10694     0.15296 =
      0.16878     0.00874    -0.02446     0.06633
C29X  1   0.164876   0.052589   0.553766    11.00000     0.03960     0.02514 =
      0.07539    -0.00076     0.00643    -0.00831
C30X  1   0.128913   0.305853   0.616753    11.00000     0.13912     0.19734 =
      0.05198    -0.03723    -0.03509     0.13119
C32X  1   0.051332   0.281876   0.597208    11.00000     0.11436     0.29992 =
      0.12959    -0.13157    -0.08283     0.14281
C34X  1   0.175390   0.351918   0.525284    10.50000     0.14947     0.13753 =
      0.06037     0.04527     0.02860     0.11698
HKLF 4
END
