TITL CrystalPilot n0009 in C 2 2 21
REM CrystalPilot node n0009 tool=refine
REM R1 = 0.0935 wR2 = 0.2885 GooF = 2.626
CELL 0.68914 15.79000 32.31000 11.86000 90.0000 90.0000 90.0000
ZERR 8 0 0 0 0 0 0
LATT -7
SYMM X,-Y,-Z
SYMM -X,Y,-Z+1/2
SYMM -X,-Y,Z+1/2
SFAC C O Cu
UNIT 224.0 32.0 8.0

WGHT 0.100000 0.000000
FVAR 0.28854
CU1   3   0.069017   0.019827   0.363577    11.00000     0.04031     0.02132 =
      0.08260     0.00094    -0.01811    -0.00171
C1    1   0.071524   0.294257   0.210634    11.00000     0.03327     0.01936 =
      0.05099    -0.00522     0.00829    -0.00382
C2    1   0.000000   0.272129   0.250000    10.50000     0.03534     0.02041 =
      0.04633     0.00000     0.00539    -0.00000
C3    1   0.000000   0.405633   0.250000    10.50000     0.09776     0.00889 =
      0.05184     0.00000     0.00017    -0.00000
O1    2   0.158925   0.046435   0.450126    11.00000     0.04656     0.04336 =
      0.07700     0.00605    -0.01938    -0.01733
C4    1   0.000000   0.359945   0.250000    10.50000     0.04886     0.01620 =
      0.04669     0.00000     0.00802    -0.00000
C5    1   0.071659   0.337658   0.211070    11.00000     0.04179     0.02109 =
      0.04759    -0.00273     0.00716    -0.00690
O2    2   0.032069   0.076346   0.334961    11.00000     0.08307     0.02104 =
      0.09634     0.00047    -0.02756     0.00376
C6    1   0.000000   0.140578   0.250000    10.50000     0.05309     0.02027 =
      0.07058     0.00000    -0.00684    -0.00000
O3    2   0.000000  -0.001930   0.250000    10.50000     0.10760     0.02255 =
      0.17186     0.00000    -0.08310    -0.00000
C7    1   0.217032   0.218593   0.062791    11.00000     0.12685     0.10054 =
      0.04517     0.00091     0.01571     0.07629
O4    2   0.123003   0.033788   0.629049    11.00000     0.05566     0.03522 =
      0.09819    -0.01187     0.03107    -0.01560
C8    1   0.148217   0.271110   0.175182    11.00000     0.04346     0.03141 =
      0.05478    -0.00480     0.01461     0.00388
C9    1   0.000000   0.226417   0.250000    10.50000     0.03962     0.02011 =
      0.05209     0.00000    -0.00031    -0.00000
C10   1   0.229255   0.083212   0.592716    11.00000     0.04148     0.03374 =
      0.06280    -0.00044     0.00189    -0.01253
C11   1   0.144275   0.362680   0.169844    11.00000     0.04726     0.03817 =
      0.04504    -0.00232     0.00501    -0.01976
C12   1   0.168803   0.361806   0.054859    11.00000     0.04328     0.04514 =
      0.04593    -0.00765     0.00694    -0.01462
C13   1   0.122203   0.333987   0.724503    11.00000     0.12333     0.13781 =
      0.06944    -0.01509    -0.00968     0.08742
C14   1   0.146525   0.243044   0.086144    11.00000     0.08777     0.05079 =
      0.04617    -0.00246     0.01622     0.02798
C15   1   0.207221   0.250568   0.717122    11.00000     0.05683     0.09776 =
      0.08275    -0.01884    -0.01924     0.03183
C16   1   0.229818   0.390055   0.018017    11.00000     0.05071     0.03728 =
      0.05618    -0.00498     0.01032    -0.01252
C17   1   0.055159   0.161811   0.321069    11.00000     0.06374     0.02674 =
      0.07249    -0.00301    -0.01795     0.00421
C18   1   0.055558   0.204720   0.318992    11.00000     0.05177     0.02649 =
      0.06084    -0.00058    -0.01120     0.00344
C19   1   0.222669   0.274327   0.236877    11.00000     0.03980     0.07190 =
      0.07906    -0.01007     0.00898     0.00880
C20   1   0.003336   0.427417   0.150062    11.00000     0.15127     0.02039 =
      0.04394     0.00143     0.01159     0.00036
O5    2   0.031090   0.000000   0.000000    10.50000     0.04410     0.12877 =
      0.14928    -0.04154    -0.00000    -0.00000
C21   1   0.209988   0.278741   0.629891    11.00000     0.09755     0.13295 =
      0.05032    -0.01259    -0.01929     0.07990
C22   1   0.188726   0.388044   0.243996    11.00000     0.08126     0.04784 =
      0.05705    -0.00478    -0.00559    -0.03052
C23   1   0.000000   0.491402   0.250000    10.50000     0.78122     0.01467 =
      0.05089     0.00000     0.06483    -0.00000
C24   1   0.000000   0.093185   0.250000    10.50000     0.05651     0.03475 =
      0.07024     0.00000    -0.00997    -0.00000
C25   1   0.251272   0.084193   0.706479    11.00000     0.06435     0.04668 =
      0.06041     0.00005     0.00605    -0.02737
C26   1   0.005189   0.470440   0.149499    11.00000     0.44115     0.02335 =
      0.05228     0.00511     0.02903     0.00464
C27   1   0.110851   0.319469   0.513360    11.00000     0.15849     0.18996 =
      0.12640    -0.00404    -0.03376     0.12355
C28   1   0.000000   0.461731   0.750000    10.50000     2.18845     0.01229 =
      0.07637     0.00000    -0.19123    -0.00000
C29X  1   0.165025   0.052585   0.553431    11.00000     0.03872     0.02695 =
      0.07923    -0.00291     0.00613    -0.00544
C30X  1   0.129683   0.307302   0.617416    11.00000     0.14314     0.20006 =
      0.06239    -0.03287    -0.03651     0.13674
C31X  1   0.036431   0.440673   0.846089    11.00000     0.42846     0.03087 =
      0.08265    -0.00206    -0.07006     0.02090
C32X  1   0.050272   0.280977   0.599259    11.00000     0.11516     0.34960 =
      0.14470    -0.15716    -0.09589     0.15928
HKLF 4
END
