TITL CrystalPilot n0025 in P 21 21 21
REM CrystalPilot node n0025 tool=set_restraints
REM R1 = 0.0424 wR2 = 0.1192 GooF = 0.975
CELL 0.68890 5.42807 8.12883 12.05269 90.0000 90.0000 90.0000
ZERR 4 0.00000 0.00000 0.00000 0.0000 0.0000 0.0000
LATT -1
SYMM X+1/2,-Y+1/2,-Z
SYMM -X,Y+1/2,-Z+1/2
SYMM -X+1/2,-Y,Z+1/2
SFAC C H N O S
UNIT 12.0 28.0 4.0 8.0 4.0

DFIX 0.8900 0.020 C4 H1X
DFIX 0.8900 0.020 C4 H2X
DFIX 0.8900 0.020 C4 H7X
DFIX 0.9700 0.020 C6 H3X
DFIX 0.9700 0.020 C6 H4X
DFIX 0.9800 0.020 C5 H5X
DFIX 1.2000 0.030 C1 H6X
SIMU 0.010 0.020 C1 H6X

WGHT 0.068900 0.111710
FVAR 1.16134
C1    5   0.118846   0.413517   0.524112    11.00000     0.02984     0.01858 =
      0.01653     0.00348     0.00003    -0.00387
C2    4   0.207518   0.216508   0.118795    11.00000     0.01047     0.02142 =
      0.02039     0.00603    -0.00005    -0.00231
C3    4   0.230944   0.008879   0.239932    11.00000     0.01654     0.02627 =
      0.02886     0.01294    -0.00294     0.00113
C4    3   0.215216   0.266471   0.874481    11.00000     0.00875     0.01678 =
      0.01689    -0.00115    -0.00084     0.00074
C5    1   0.166628   0.586736   0.323461    11.00000     0.01085     0.01712 =
      0.01301     0.00013     0.00106     0.00279
C6    1   0.242710   0.430014   0.384169    11.00000     0.01700     0.01667 =
      0.01976     0.00142    -0.00049     0.00387
C7    1   0.114951   0.105407   0.179062    11.00000     0.01103     0.01676 =
      0.01485     0.00138    -0.00047    -0.00055
H1X   2   0.255110   0.255378   0.948373    11.00000     0.01165
H2X   2   0.059098   0.280327   0.871976    11.00000     0.01482
H3X   2   0.420916   0.420555   0.400475    11.00000     0.03070
H4X   2   0.198020   0.340219   0.340223    11.00000     0.01767
H5X   2   0.223835   0.577023   0.247090    11.00000     0.02664
H6X   2   0.258279   0.492827   0.578489    11.00000     0.20910
H7X   2   0.264849   0.179795   0.837389    11.00000     0.02697
HKLF 4
END
