TITL CrystalPilot n0013 in P 1 21 1
    job.res
    created by SHELXL-2019/3 at 11:59:43 on 29-Aug-2026
REM CrystalPilot node n0013 tool=run_shelxl
REM R1 = 0.0812 wR2 = 0.3063 GooF = 1.035
CELL 0.71073 8.36330 10.09454 15.09887 90.0000 105.3726 90.0000
ZERR 8 0.00000 0.00000 0.00000 0.0000 0.0000 0.0000
LATT -1
SYMM -X,Y+1/2,-Z
SFAC C H N O
UNIT 48.0 48.0 16.0 16.0
L.S. 20

WGHT    0.100000
BASF   0.22143
FVAR       0.19335
O1    4    0.109994    0.023339    0.735803    11.00000    0.03767    0.03568 =
         0.04314   -0.01347    0.01955   -0.00561
O2    4    0.392846    0.801603    0.761665    11.00000    0.04085    0.04644 =
         0.01645    0.00994   -0.01723   -0.02256
O3    4    0.485563    0.423085    0.659245    11.00000    0.03227    0.03087 =
         0.05192   -0.00696   -0.00275   -0.01702
O4    4    0.007719    0.403286    0.839811    11.00000    0.05345    0.02795 =
         0.02438    0.00045    0.02360   -0.01797
O5    4    0.359086    0.016664    0.219161    11.00000    0.05091    0.02415 =
         0.02766    0.00637    0.02420    0.01181
O6    4    0.097836    0.916441    0.859364    11.00000    0.03934    0.03922 =
         0.05146    0.00861    0.01200   -0.03025
O7    4    0.140092    0.809593    0.285498    11.00000    0.03081    0.04760 =
         0.01433   -0.00252   -0.00312   -0.00435
O8    4    0.401099    0.911602    0.641085    11.00000    0.03930    0.02887 =
         0.03486    0.00214    0.00118    0.00407
N1    3    0.408223    0.012935    0.300005    11.00000    0.02989    0.01391 =
         0.05815    0.01387    0.01906    0.01517
N2    3    0.084940    0.817607    0.195893    11.00000    0.02776    0.02726 =
         0.00991   -0.00414    0.00623   -0.00809
C1    1    0.166610    0.622714    0.661854    11.00000    0.02536    0.02339 =
         0.02447    0.00625    0.00919   -0.01967
N3    3    0.344060    0.817037    0.676781    11.00000    0.03298    0.04086 =
         0.02902    0.02153    0.01506    0.00350
C2    1    0.236481    0.725447    0.623068    11.00000    0.01667    0.01339 =
         0.02178    0.00120    0.00078    0.00584
N4    3    0.310358    0.596470    0.271454    11.00000    0.02486    0.05311 =
         0.01905    0.00455   -0.01516    0.00955
AFIX  93
H4A   2    0.372795    0.529653    0.292312    11.00000   -1.20000
H4B   2    0.285859    0.652232    0.308883    11.00000   -1.20000
AFIX   0
C3    1    0.250519    0.613906    0.179522    11.00000    0.01661    0.02485 =
         0.02879    0.01164   -0.00320   -0.01701
N5    3    0.312203    0.232306    0.748372    11.00000    0.03294    0.03306 =
         0.02339    0.00245   -0.00012   -0.01285
AFIX  93
H5A   2    0.247838    0.182834    0.707800    11.00000   -1.20000
H5B   2    0.361952    0.298406    0.731484    11.00000   -1.20000
AFIX   0
N6    3    0.201342    0.597720    0.752007    11.00000    0.03476    0.03765 =
         0.03497    0.00562    0.01854   -0.01345
AFIX  93
H6A   2    0.154877    0.532045    0.771650    11.00000   -1.20000
H6B   2    0.270125    0.647334    0.790292    11.00000   -1.20000
AFIX   0
C4    1    0.141106    0.719133    0.142023    11.00000    0.02325    0.03114 =
         0.02717   -0.00521    0.02554   -0.00043
C5    1    0.208536    0.307516    0.384401    11.00000    0.02686    0.02867 =
         0.03406   -0.00678    0.01481   -0.00335
AFIX  43
H5    2    0.138606    0.379190    0.363997    11.00000   -1.20000
AFIX   0
N7    3    0.183388    0.234386    0.228461    11.00000    0.04316    0.01912 =
         0.03270    0.00949    0.02197    0.01294
AFIX  93
H7A   2    0.203737    0.181755    0.187999    11.00000   -1.20000
H7B   2    0.119748    0.301783    0.211457    11.00000   -1.20000
AFIX   0
C6    1    0.357606    0.106255    0.358255    11.00000    0.02035    0.01042 =
         0.02471    0.00611   -0.01301    0.00269
C7    1    0.053574    0.539244    0.601676    11.00000    0.04759    0.02624 =
         0.02151    0.00104    0.03279    0.00032
AFIX  43
H7    2    0.002309    0.471419    0.625581    11.00000   -1.20000
AFIX   0
N8    3    0.147572    0.010491    0.820718    11.00000    0.01897    0.00853 =
         0.04065   -0.01399    0.00606   -0.00381
C8    1    0.264496    0.102951    0.878796    11.00000    0.01881    0.02029 =
         0.03601   -0.01089    0.00791   -0.00930
C9    1    0.483887    0.268219   -0.002489    11.00000    0.01729    0.03293 =
         0.02260   -0.01169   -0.01020   -0.01081
AFIX  43
H9    2    0.559966    0.322569    0.037362    11.00000   -1.20000
AFIX   0
C10   1    0.250576    0.211471    0.317649    11.00000    0.02300    0.02385 =
         0.03216   -0.01058    0.01922    0.01020
C11   1    0.335494    0.205812    0.839929    11.00000    0.01938    0.02180 =
         0.03269   -0.01005    0.00465    0.01530
C12   1    0.197515    0.744213    0.524406    11.00000    0.03283    0.02669 =
         0.02904    0.01553    0.00830    0.01025
AFIX  43
H12   2    0.245954    0.813191    0.499931    11.00000   -1.20000
AFIX   0
C13   1    0.417244    0.090694    0.451346    11.00000    0.03590    0.02736 =
         0.04739    0.01014    0.02632    0.00854
AFIX  43
H13   2    0.483878    0.018304    0.474732    11.00000   -1.20000
AFIX   0
C14   1    0.447660    0.291195    0.905101    11.00000    0.01365    0.02257 =
         0.05144   -0.00076   -0.01306   -0.00244
AFIX  43
H14   2    0.495963    0.363085    0.883589    11.00000   -1.20000
AFIX   0
C15   1    0.079967    0.732979    0.044483    11.00000    0.01715    0.02178 =
         0.00861   -0.00447   -0.00730   -0.00138
AFIX  43
H15   2    0.009363    0.802617    0.019820    11.00000   -1.20000
AFIX   0
C16   1    0.274640    0.286403    0.473279    11.00000    0.03310    0.01823 =
         0.06219   -0.00420    0.01970    0.00731
AFIX  43
H16   2    0.249159    0.346531    0.514176    11.00000   -1.20000
AFIX   0
C17   1    0.232016    0.535711    0.025691    11.00000    0.02132    0.03614 =
         0.01389   -0.00740    0.00151   -0.00679
AFIX  43
H17   2    0.262484    0.473285   -0.012110    11.00000   -1.20000
AFIX   0
C18   1    0.412769    0.169881    0.031703    11.00000    0.01785    0.01995 =
         0.03600   -0.01282   -0.02231    0.00540
AFIX  43
H18   2    0.436493    0.157592    0.094901    11.00000   -1.20000
AFIX   0
C19   1    0.378981    0.181622    0.510270    11.00000    0.02903    0.03085 =
         0.04140   -0.00776    0.00015   -0.01598
AFIX  43
H19   2    0.421891    0.173289    0.573470    11.00000   -1.20000
AFIX   0
C20   1    0.301191    0.084297    0.971702    11.00000    0.02151    0.01312 =
         0.03687   -0.00715    0.01387   -0.01321
AFIX  43
H20   2    0.252343    0.014837    0.995459    11.00000   -1.20000
AFIX   0
C21   1    0.094913    0.664377    0.470621    11.00000    0.05030    0.04409 =
         0.02333    0.00377    0.03307   -0.01067
AFIX  43
H21   2    0.069780    0.675649    0.407291    11.00000   -1.20000
AFIX   0
C22   1   -0.018025    0.055706    0.490205    11.00000    0.03469    0.01302 =
         0.04892   -0.00167    0.02419   -0.00963
AFIX  43
H22   2    0.055316   -0.001808    0.528920    11.00000   -1.20000
AFIX   0
C23   1    0.287831    0.527853    0.120781    11.00000    0.01841    0.01518 =
         0.02915    0.00245   -0.00263    0.01259
AFIX  43
H23   2    0.356544    0.457164    0.145482    11.00000   -1.20000
AFIX   0
C24   1    0.124983    0.644878    0.988541    11.00000    0.03311    0.04202 =
         0.01183    0.00655    0.01283    0.02405
AFIX  43
H24   2    0.086377    0.654826    0.925214    11.00000   -1.20000
AFIX   0
HKLF 5




REM  CrystalPilot n0013 in P 1 21 1
REM wR2 = 0.3235, GooF = S = 1.546, Restrained GooF = 1.546 for all data
REM R1 = 0.1066 for 5935 Fo > 4sig(Fo) and 0.1383 for all 10782 data
REM 362 parameters refined using 1 restraints

END  
     
WGHT      0.1380      3.0970 
