TITL CrystalPilot n0002 in P -1
REM CrystalPilot node n0002 tool=run_shelxl
REM R1 = 0.0942 wR2 = 0.2723 GooF = 2.231
CELL 1.54178 6.98020 9.35700 12.57790 102.8330 94.2960 107.5670
ZERR 2 0.00000 0.00000 0.00000 0.0000 0.0000 0.0000
LATT 1
SFAC C H N O
UNIT 32.0 28.0 4.0 10.0

WGHT 0.100000 0.000000
FVAR 0.74185
O1    4  -0.186840   0.043068   0.012914    11.00000     0.09901     0.08163 =
      0.08812    -0.02088    -0.01258     0.01332
O2    4   0.025322   0.259716   0.006361    11.00000     0.13175     0.10125 =
      0.06820     0.01443     0.00594     0.01108
O3    4   0.124185   0.202399   0.567240    11.00000     0.19249     0.04815 =
      0.08216     0.02459     0.00465     0.00500
O4    4   0.400874   0.746175   0.557045    11.00000     0.10225     0.04963 =
      0.04963     0.01012     0.00303     0.01218
O5    4   0.527459   0.935557   0.711060    11.00000     0.08611     0.04751 =
      0.05505     0.00904     0.00177     0.00923
N1    3  -0.054339   0.166771   0.055804    11.00000     0.08079     0.07135 =
      0.06948    -0.00991    -0.00004     0.02161
N2    3   0.249532   0.458838   0.579477    11.00000     0.07592     0.04555 =
      0.05798     0.01300     0.00384     0.01391
H2    2   0.278877   0.526397   0.541782    11.00000     0.09233
C1    1   0.114015   0.278731   0.400844    11.00000     0.06022     0.04069 =
      0.07017     0.00781     0.00708     0.01286
C2    1   0.010005   0.125188   0.342160    11.00000     0.07698     0.04151 =
      0.08348     0.00960     0.00798     0.01126
H2A   2  -0.026155   0.039267   0.383946    11.00000     0.11251
C3    1  -0.044010   0.088306   0.228870    11.00000     0.07365     0.04420 =
      0.08430    -0.00380     0.00236     0.01029
H3A   2  -0.112961  -0.012941   0.194306    11.00000     0.09567
C4    1   0.007409   0.203878   0.176055    11.00000     0.06045     0.05475 =
      0.06590    -0.00028     0.00463     0.01736
C5    1   0.113475   0.356575   0.230684    11.00000     0.07244     0.05162 =
      0.06233     0.00682     0.00513     0.01173
H5A   2   0.148767   0.438544   0.187704    11.00000     0.08210
C6    1   0.165004   0.392502   0.343696    11.00000     0.07290     0.04066 =
      0.06541     0.00654     0.00403     0.00732
H6A   2   0.240845   0.500997   0.380757    11.00000     0.07662
C7    1   0.162598   0.308880   0.523608    11.00000     0.07861     0.04475 =
      0.07029     0.01415     0.00777     0.01351
C8    1   0.306312   0.523962   0.693421    11.00000     0.06016     0.05498 =
      0.05937     0.01866     0.00580     0.01830
C9    1   0.269752   0.435579   0.770424    11.00000     0.09007     0.06477 =
      0.07391     0.03143     0.00618     0.01776
H9A   2   0.204532   0.335393   0.753269    11.00000     0.08534
C10   1   0.325741   0.505147   0.881446    11.00000     0.10584     0.09492 =
      0.07222     0.04486     0.00705     0.02732
H10A  2   0.307524   0.451499   0.929879    11.00000     0.11000
C11   1   0.421558   0.661734   0.919659    11.00000     0.10200     0.09018 =
      0.05239     0.02420     0.00008     0.02864
H11A  2   0.457720   0.712824   0.996424    11.00000     0.11041
C12   1   0.458201   0.752129   0.845775    11.00000     0.07237     0.06972 =
      0.05273     0.01321     0.00053     0.02125
H12A  2   0.521202   0.860673   0.873877    11.00000     0.08099
C13   1   0.401517   0.685514   0.732531    11.00000     0.05669     0.05348 =
      0.05337     0.01345     0.00420     0.01803
C14   1   0.441256   0.788784   0.656935    11.00000     0.05921     0.05113 =
      0.05151     0.00938     0.00353     0.01500
C15A  1   0.572863   1.043859   0.648825    10.64300     0.09681     0.03921 =
      0.05191     0.00754     0.00476     0.00471
H15A  2   0.469722   1.047918   0.605315    10.64300     0.07218
H15B  2   0.688663   1.043657   0.614147    10.64300     0.07299
C16A  1   0.686074   1.202247   0.726976    10.64300     0.14027     0.03949 =
      0.07854     0.00749    -0.00407     0.00101
H16A  2   0.767385   1.277148   0.666310    10.64300     0.10262
H16B  2   0.800026   1.183933   0.767764    10.64300     0.10047
H16C  2   0.589527   1.256961   0.761311    10.64300     0.12153
C15B  1   0.586859   1.062289   0.643502    10.35700     0.10441     0.06600 =
      0.10977     0.05181     0.00682     0.01259
H15C  2   0.653464   0.989069   0.584145    10.35700     0.05881
H15D  2   0.410796   1.050584   0.617461    10.35700     0.06701
C16B  1   0.619514   1.201028   0.733660    10.35700     0.17838     0.05445 =
      0.13434     0.01280    -0.01076     0.00872
H16D  2   0.687685   1.277511   0.726084    10.35700     0.05444
H16E  2   0.748308   1.245606   0.781639    10.35700     0.07172
H16F  2   0.402840   1.210431   0.763551    10.35700     0.16524
HKLF 4
END
