TITL CrystalPilot n0078 in P -1
REM CrystalPilot node n0078 tool=run_shelxl
REM R1 = 0.0753 wR2 = 0.2283 GooF = 1.12
CELL 0.71073 10.15540 12.70750 20.80080 107.6910 100.3150 96.2330
ZERR 2 0.00170 0.00210 0.00440 0.0030 0.0030 0.0020
LATT 1
SFAC C N P Ni La
UNIT 96.0 8.0 4.0 2.0 2.0

DFIX 1.3900 0.010 C28 C40
DFIX 1.3900 0.010 C40 C42
DFIX 1.3900 0.010 C42 C34
DFIX 1.3900 0.010 C34 C39
DFIX 1.3900 0.010 C39 C43
DFIX 1.3900 0.010 C43 C28
FLAT 0.01 C28 C40 C42 C34 C39 C43
SADI 0.020 P1 C22 C22 C25 C22 C30 P1 C16 C16 C33 C16 C32 P1 C22B C22B C25B =
 C22B C30B P1 C16B C16B C33B C16B C32B
SIMU 0.010 0.020 P1 C22 C25 C30 C16 C33 C32 C22B C25B C30B C16B C33B C32B
SADI 0.020 C11 C36 C11 C38 C11 C31 C11 C36B C11 C38B C11 C31B
SIMU 0.010 0.020 C11 C36 C38 C31 C36B C38B C31B
SADI 0.020 C27 C44 C27 C37 C27 C41 C27 C44B C27 C37B C27 C41B
SIMU 0.010 0.020 C27 C44 C37 C41 C44B C37B C41B
SADI 0.020 C28 C40 C40 C42 C42 C34 C34 C39 C39 C43 C43 C28 C28B C40B C40B =
 C42B C42B C34B C34B C39B C39B C43B C43B C28B
FLAT 0.01 C28B C40B C42B C34B C39B C43B
SIMU 0.010 0.020 C28 C40 C42 C34 C39 C43 C28B C40B C42B C34B C39B C43B

WGHT 0.082660 10.758620
FVAR 0.18899 0.69246 0.71836 0.49117 0.74383
LA1   5   0.429111   0.291525   0.269793    11.00000     0.04339     0.03299 =
      0.04289     0.00576     0.00736     0.00973
NI1   4   0.466885   0.070245   0.207492    11.00000     0.04986     0.03176 =
      0.04624     0.00551     0.01017     0.01114
P1    3   0.260773   0.052252   0.145742    11.00000     0.05123     0.03299 =
      0.04666     0.00319     0.00515     0.00670
P2    3   0.511630   0.071625   0.314954    11.00000     0.05950     0.03552 =
      0.04867     0.00985     0.00970     0.01476
N1    2   0.251023   0.280737   0.169955    11.00000     0.05805     0.03197 =
      0.04660     0.00673     0.00252     0.01133
N2    2   0.383054   0.246737   0.375438    11.00000     0.06567     0.04136 =
      0.04665     0.00978     0.01651     0.01709
N3    2   0.627616   0.295797   0.216770    11.00000     0.04716     0.04282 =
      0.05380     0.01003     0.00974     0.00297
C1    1   0.294798   0.493835   0.270165    11.00000     0.05347     0.03516 =
      0.04982     0.00674     0.00320     0.01253
N4    1   0.117079   0.348511   0.082648    11.00000     0.07293     0.04706 =
      0.04238     0.01129     0.00384     0.01080
N5    1   0.245198   0.449509   0.316151    11.00000     0.05623     0.04074 =
      0.04428     0.00473     0.00552     0.01584
N6    1   0.327951   0.458031   0.380090    11.00000     0.05763     0.03515 =
      0.04203     0.00163     0.00681     0.01370
C2    1   0.194441   0.362948   0.149763    11.00000     0.05420     0.03680 =
      0.04624     0.01263     0.00522     0.00979
C3    1   0.570236  -0.143795   0.142373    11.00000     0.08291     0.03340 =
      0.05741     0.00666     0.02065     0.02646
N7    1   0.211633   0.472404   0.199213    11.00000     0.05338     0.03693 =
      0.04621     0.00888     0.00719     0.00613
C4    1   0.593880   0.187541   0.192824    11.00000     0.05339     0.04672 =
      0.05693     0.01289     0.01307     0.01230
C5    1   0.429981   0.550744   0.288529    11.00000     0.06465     0.03722 =
      0.06520     0.01231     0.00508     0.00564
C6    1   0.274146   0.402039   0.425710    11.00000     0.06240     0.05084 =
      0.04166     0.00459     0.00698     0.02058
C7    1   0.218402   0.171207   0.115859    11.00000     0.07437     0.03815 =
      0.05179     0.00559    -0.00558     0.01252
C8    1   0.153314   0.558680   0.183271    11.00000     0.07970     0.04365 =
      0.06151     0.01677     0.00541     0.01613
N8    2   0.529689  -0.060949   0.166297    11.00000     0.07261     0.05856 =
      0.06457     0.01684     0.01330     0.01118
C9    1   0.194049   0.452736   0.469737    11.00000     0.07206     0.07862 =
      0.04803     0.00586     0.01763     0.03091
C10   1   0.460534   0.514631   0.397125    11.00000     0.06900     0.04446 =
      0.04986     0.00110    -0.00254     0.00959
C11   1   0.735885   0.360990   0.198463    11.00000     0.06243     0.05476 =
      0.08432     0.02256     0.02910     0.00496
C12   1   0.060427   0.434417   0.067106    11.00000     0.10292     0.05891 =
      0.05190     0.02227    -0.00155     0.01531
C13   1   0.309338   0.294346   0.421792    11.00000     0.06292     0.04474 =
      0.04450     0.00831     0.01300     0.01116
C14   1   0.175192   0.296138   0.511898    11.00000     0.08310     0.08369 =
      0.05961     0.01082     0.02477     0.01294
C15   1   0.690132   0.134736   0.365153    11.00000     0.06830     0.05631 =
      0.06035     0.01915    -0.00300     0.01128
PART 1
C16   1   0.108159   0.019816   0.175111    21.00000     0.05761
PART 0
C17   1   0.514370   0.561345   0.353073    11.00000     0.06507     0.04570 =
      0.06283     0.00714    -0.00121    -0.00271
C18   1   0.715954   0.264744   0.386713    11.00000     0.07730     0.06171 =
      0.07709     0.01560     0.00544     0.00049
C19   1   0.415768   0.138911   0.381165    11.00000     0.08067     0.04819 =
      0.04948     0.01588     0.02026     0.02211
C20   1   0.077644   0.541409   0.116186    11.00000     0.10968     0.05330 =
      0.05996     0.02132    -0.00186     0.02546
C21   1   0.258301   0.244653   0.468331    11.00000     0.08356     0.06596 =
      0.05008     0.01569     0.02292     0.01312
PART 1
C22   1   0.211170  -0.056992   0.060768    21.00000     0.05735
PART 0
C23   1   0.143161   0.399348   0.513069    11.00000     0.07734     0.08885 =
      0.06239     0.01660     0.03050     0.03172
C24   1   0.495653  -0.073732   0.321489    11.00000     0.10622     0.04145 =
      0.07911     0.02402     0.01688     0.02015
PART 1
C25   1   0.331476  -0.040167   0.016858    21.00000     0.06096
PART 0
C26   1   0.357924  -0.142333   0.283810    11.00000     0.10610     0.05362 =
      0.10033     0.02367     0.01459    -0.00581
C27   1   0.606184  -0.253798   0.113885    11.00000     0.09032     0.05316 =
      0.08808     0.01519     0.03000     0.03797
PART 1
C28   1   1.094420   0.715834   0.371352    51.00000     0.10931
PART 0
C29   1   0.792290   0.086780   0.321770    11.00000     0.06082     0.11848 =
      0.10847     0.03524     0.01207     0.03867
PART 1
C30   1   0.183576  -0.184222   0.070226    21.00000     0.08941
C31   1   0.866220   0.306205   0.199196    31.00000     0.09193
C32   1   0.104148   0.119811   0.247375    21.00000     0.09705
C33   1  -0.042056   0.014889   0.122008    21.00000     0.09778
C34   1   1.056741   0.939234   0.405824    51.00000     0.11161
PART 0
C35   1   0.539488  -0.080298   0.395571    11.00000     0.17803     0.07564 =
      0.09287     0.05037     0.01609     0.03169
PART 1
C36   1   0.770541   0.482389   0.249912    31.00000     0.09353
C37   1   0.663633  -0.246857   0.051422    41.00000     0.09440
C38   1   0.676977   0.367911   0.124897    31.00000     0.08494
C39   1   1.144210   0.905691   0.452066    51.00000     0.11712
C40   1   1.007018   0.749504   0.325284    51.00000     0.11309
C41   1   0.475973  -0.347377   0.087163    41.00000     0.08955
C42   1   0.989334   0.860574   0.343108    51.00000     0.11607
C43   1   1.161899   0.794601   0.434163    51.00000     0.11740
C44   1   0.705265  -0.272226   0.173408    41.00000     0.08808
PART 2
C22B  1   0.244422  -0.037282   0.057597   -21.00000     0.05283
C25B  1   0.392876  -0.037180   0.028696   -21.00000     0.08405
C30B  1   0.210113  -0.173495   0.054468   -21.00000     0.03538
C16B  1   0.129064  -0.010437   0.173459   -21.00000     0.06602
C33B  1  -0.035586  -0.022886   0.129915   -21.00000     0.06209
C32B  1   0.098697   0.084120   0.245473   -21.00000     0.05824
C36B  1   0.813104   0.449694   0.270557   -31.00000     0.08360
C38B  1   0.701851   0.482995   0.219027   -31.00000     0.09675
C31B  1   0.842055   0.293718   0.168770   -31.00000     0.05621
C44B  1   0.748071  -0.253645   0.157405   -41.00000     0.09282
C37B  1   0.614169  -0.264718   0.039189   -41.00000     0.09778
C41B  1   0.495588  -0.345160   0.118215   -41.00000     0.08790
C28B  1   1.184842   0.745474   0.404380   -51.00000     0.11089
C43B  1   1.220845   0.858551   0.443028   -51.00000     0.11407
C39B  1   1.124433   0.925028   0.433687   -51.00000     0.11729
C34B  1   0.997625   0.885690   0.389201   -51.00000     0.11650
C42B  1   0.964973   0.772147   0.351354   -51.00000     0.11513
C40B  1   1.059342   0.704550   0.359802   -51.00000     0.11020
PART 0
HKLF 4
END
