TITL coarse solution from raw frames (DIALS + CrystalPilot) in P 21 21 21
REM coarse solve R1 = 0.2064
REM raw frames -> DIALS (import/index/integrate/scale) -> charge flipping + isotropic LS
CELL 0.68890 5.42807 8.12883 12.05269 90.0000 90.0000 90.0000
ZERR 4 0.00000 0.00000 0.00000 0.0000 0.0000 0.0000
LATT -1
SYMM X+1/2,-Y+1/2,-Z
SYMM -X,Y+1/2,-Z+1/2
SYMM -X+1/2,-Y,Z+1/2
SFAC C
UNIT 28.0

WGHT 0.100000 0.000000
FVAR 1.00000
C1    1   0.117885   0.413684   0.524227    11.00000     0.00429
C2    1   0.209557   0.219044   0.118139    11.00000     0.03317
C3    1   0.231632   0.009959   0.240942    11.00000     0.03816
C4    1   0.218707   0.266767   0.873311    11.00000     0.03472
C5    1   0.164026   0.582209   0.323650    11.00000     0.03632
C6    1   0.247487   0.429630   0.383698    11.00000     0.04404
C7    1   0.115028   0.103362   0.178540    11.00000     0.03912
HKLF 4
END
