TITL CrystalPilot n0004 in P 21 21 21
REM CrystalPilot node n0004 tool=refine
REM R1 = 0.091 wR2 = 0.2858 GooF = 1.991
CELL 0.68890 5.42807 8.12883 12.05269 90.0000 90.0000 90.0000
ZERR 4 0.00000 0.00000 0.00000 0.0000 0.0000 0.0000
LATT -1
SYMM X+1/2,-Y+1/2,-Z
SYMM -X,Y+1/2,-Z+1/2
SYMM -X+1/2,-Y,Z+1/2
SFAC C N O S
UNIT 12.0 4.0 8.0 4.0

WGHT 0.100000 0.000000
FVAR 1.13710
C1    4   0.118663   0.413444   0.524212    11.00000     0.02148
C2    3   0.207331   0.217081   0.119166    11.00000     0.01649
C3    3   0.231477   0.009742   0.240219    11.00000     0.02139
C4    2   0.215090   0.265011   0.873951    11.00000     0.01335
C5    1   0.166222   0.585651   0.323497    11.00000     0.01372
C6    1   0.242233   0.429606   0.383954    11.00000     0.01786
C7    1   0.114359   0.106206   0.178536    11.00000     0.01371
HKLF 4
END
