TITL CrystalPilot n0018 in I 41/a m d :2
REM CrystalPilot node n0018 tool=add_atoms_from_difference_map
REM R1 = 0.0743 wR2 = 0.2361 GooF = 1.198
CELL 1.54178 15.85170 15.85170 57.50380 90.0000 90.0000 90.0000
ZERR 4 0.00010 0.00010 0.00130 0.0000 0.0000 0.0000
LATT 2
SYMM -Y+1/4,X+3/4,Z+1/4
SYMM Y+1/4,-X+1/4,Z+3/4
SYMM X,-Y,-Z
SYMM -X,Y+1/2,-Z
SYMM -X,-Y+1/2,Z
SYMM Y+1/4,X+3/4,-Z+1/4
SYMM -Y+1/4,-X+1/4,-Z+3/4
SFAC C H O Zr
UNIT 272.0 144.0 128.0 24.0

WGHT 0.142330 13.550750
FVAR 0.12771
FE01  4   0.000000   0.250000   0.331572    10.25000     0.05422     0.03105 =
      0.03551     0.00000    -0.00000    -0.00000
ZR02  4   0.110243   0.360243   0.375000    10.50000     0.06220     0.06220 =
      0.04223    -0.00306     0.00306    -0.02935
O004  3   0.126321   0.250000   0.350625    10.50000     0.04584     0.07616 =
      0.04699     0.00000     0.01150    -0.00000
O005  3   0.089341   0.335494   0.437112    11.00000     0.06214     0.10027 =
      0.07160    -0.02243    -0.01702    -0.01324
O006  3   0.161235   0.404809   0.408042    11.00000     0.10637     0.14538 =
      0.06201    -0.01378    -0.01037    -0.06112
O007  3   0.075192   0.500887   0.374482    10.50000     0.33237     0.03863 =
      0.02476    -0.00943     0.03830    -0.10546
C008  1   0.217684   0.386735   0.468498    11.00000     0.05553     0.11826 =
      0.06836    -0.02173    -0.00764    -0.00492
AFIX 43
H008  2   0.176751   0.349913   0.474085    11.00000    -1.20000
AFIX 0
C009  1   0.213997   0.415269   0.445976    11.00000     0.06001     0.10683 =
      0.06879    -0.02921    -0.00134    -0.01426
C00A  1   0.148622   0.383809   0.429157    11.00000     0.06429     0.10366 =
      0.06401    -0.01223    -0.00443    -0.01820
C00B  1   0.500000   0.472059   0.477721    10.50000     0.05170     0.14216 =
      0.07977    -0.05083    -0.00000    -0.00000
AFIX 43
H00B  2   0.500000   0.450696   0.462658    10.50000    -1.20000
AFIX 0
C00D  1   0.345028   0.468441   0.474569    11.00000     0.04935     0.13101 =
      0.07691    -0.04909    -0.00453     0.00029
C00E  1   0.422339   0.487408   0.488543    11.00000     0.05449     0.12686 =
      0.06775    -0.04098    -0.00109    -0.00662
C00F  1   0.272612   0.473470   0.437589    11.00000     0.08034     0.13890 =
      0.07579    -0.01143    -0.00846    -0.04075
AFIX 43
H00F  2   0.267851   0.495520   0.422659    11.00000    -1.20000
AFIX 0
O5X   3   0.000000   0.156472   0.356593    10.50000     0.05815     0.03266 =
      0.03918     0.00229    -0.00000    -0.00000
C8X   1   0.163018   0.032502   0.732804    11.00000     0.13372     0.06347 =
      0.06731    -0.00226    -0.02732    -0.00074
AFIX 43
H8X   2   0.143840   0.034854   0.748074    11.00000    -1.20000
AFIX 0
C9X   1   0.161416   0.002299   0.047787    11.00000     0.07393     0.12788 =
      0.08822    -0.01321    -0.01468    -0.02729
AFIX 43
H9X   2   0.120683  -0.034747   0.053371    11.00000    -1.20000
AFIX 0
O6X   3   0.097000   0.002500   0.373300    10.50000     0.06000
HKLF 4
END
