TITL CrystalPilot n0010 in P -1
REM CrystalPilot node n0010 tool=refine
REM R1 = 0.0731 wR2 = 0.2575 GooF = 1.894
CELL 0.71073 10.15540 12.70750 20.80080 107.6910 100.3150 96.2330
ZERR 2 0.00170 0.00210 0.00440 0.0030 0.0030 0.0020
LATT 1
SFAC C N P Ni La
UNIT 88.0 16.0 4.0 2.0 2.0

WGHT 0.100000 0.000000
FVAR 0.18925
LA01  5   0.429119   0.291510   0.269802    11.00000     0.04321     0.03271 =
      0.04260     0.00558     0.00750     0.00936
NI02  4   0.466825   0.070246   0.207444    11.00000     0.04973     0.03171 =
      0.04645     0.00536     0.01055     0.01088
P003  3   0.260742   0.052221   0.145689    11.00000     0.05208     0.03301 =
      0.04714     0.00302     0.00554     0.00705
P004  3   0.511662   0.071586   0.314985    11.00000     0.06031     0.03522 =
      0.04890     0.00921     0.00928     0.01444
N005  2   0.252032   0.280727   0.170174    11.00000     0.05348     0.03366 =
      0.04671     0.00936     0.00309     0.00986
N006  2   0.382491   0.246141   0.375129    11.00000     0.06907     0.03972 =
      0.04756     0.00849     0.01769     0.01730
N007  2   0.628203   0.297321   0.217638    11.00000     0.04408     0.04206 =
      0.05811     0.00791     0.00786     0.00372
C008  1   0.295513   0.494324   0.269959    11.00000     0.05959     0.03352 =
      0.05176     0.00778     0.00300     0.01240
N009  2   0.116591   0.349268   0.083041    11.00000     0.09094     0.06122 =
      0.05345     0.01571     0.00387     0.01301
N00A  2   0.245709   0.448575   0.315807    11.00000     0.06237     0.05679 =
      0.05439     0.00836     0.00747     0.01541
N00B  2   0.328713   0.457289   0.379861    11.00000     0.06831     0.04307 =
      0.05429     0.00295     0.00577     0.01655
C00C  1   0.194079   0.363252   0.149815    11.00000     0.05484     0.03737 =
      0.04748     0.01247     0.00897     0.01219
C00D  1   0.571352  -0.143424   0.142478    11.00000     0.08594     0.03380 =
      0.06081     0.00509     0.02076     0.02952
N00E  2   0.211887   0.472255   0.199072    11.00000     0.05864     0.04622 =
      0.05965     0.01194     0.00628     0.00642
C00F  1   0.592910   0.187335   0.192486    11.00000     0.05259     0.04782 =
      0.05611     0.01065     0.01452     0.01119
C00G  1   0.431085   0.551715   0.288436    11.00000     0.06667     0.03705 =
      0.06104     0.01092     0.00414     0.00452
C00H  1   0.274784   0.402167   0.425484    11.00000     0.06078     0.05268 =
      0.03988     0.00207     0.00623     0.01918
C00I  1   0.220076   0.171625   0.115486    11.00000     0.07122     0.03950 =
      0.05201     0.00440    -0.00543     0.01350
C00J  1   0.152931   0.559468   0.184093    11.00000     0.08263     0.04415 =
      0.06605     0.01897     0.00609     0.01369
N00K  2   0.531075  -0.061472   0.165336    11.00000     0.07449     0.06306 =
      0.06327     0.01776     0.01284     0.01211
C00L  1   0.194016   0.452420   0.469613    11.00000     0.07637     0.08028 =
      0.04884     0.00852     0.01918     0.03294
C00M  1   0.462512   0.514235   0.397030    11.00000     0.06751     0.04199 =
      0.05639     0.00451    -0.00141     0.00995
C00N  1   0.733365   0.359173   0.197418    11.00000     0.05748     0.04946 =
      0.08622     0.01571     0.02952     0.00221
C00O  1   0.059576   0.435663   0.067932    11.00000     0.09598     0.05789 =
      0.05024     0.02094    -0.00096     0.01331
C00P  1   0.309021   0.294879   0.421690    11.00000     0.06370     0.04689 =
      0.04375     0.00762     0.01204     0.00977
C00Q  1   0.175400   0.298022   0.512081    11.00000     0.08035     0.08085 =
      0.06203     0.00663     0.02092     0.00797
C00R  1   0.690450   0.134606   0.364546    11.00000     0.06499     0.06046 =
      0.05946     0.01790    -0.00168     0.01002
C00S  1   0.105863   0.015198   0.175583    11.00000     0.04665     0.08150 =
      0.08780     0.02703     0.01231    -0.00124
C00T  1   0.513874   0.561254   0.352918    11.00000     0.06253     0.04667 =
      0.06626     0.00859     0.00066    -0.00462
C00U  1   0.715092   0.263894   0.385803    11.00000     0.06830     0.06193 =
      0.07872     0.01314    -0.00123     0.00530
C00V  1   0.416865   0.139222   0.380938    11.00000     0.07417     0.04616 =
      0.05068     0.01471     0.01692     0.01976
C00W  1   0.075619   0.540132   0.116203    11.00000     0.11021     0.04908 =
      0.05899     0.02008    -0.00285     0.02578
C00X  1   0.257079   0.244264   0.468151    11.00000     0.08442     0.06797 =
      0.04896     0.01609     0.02281     0.01440
C00Y  1   0.222105  -0.056047   0.056311    11.00000     0.09175     0.04989 =
      0.05632    -0.00470    -0.01135     0.01717
C00Z  1   0.143828   0.398276   0.513713    11.00000     0.07448     0.08944 =
      0.06471     0.01547     0.02898     0.02764
C010  1   0.496948  -0.073157   0.321457    11.00000     0.10189     0.04367 =
      0.08423     0.02621     0.01324     0.01862
C011  1   0.333846  -0.041436   0.019123    11.00000     0.10426     0.07840 =
      0.05986     0.00723     0.02645     0.02163
C012  1   0.354349  -0.144873   0.281790    11.00000     0.11133     0.05348 =
      0.09719     0.02227     0.01088    -0.01035
C013  1   0.604964  -0.253469   0.114113    11.00000     0.10044     0.04414 =
      0.08597     0.00944     0.02897     0.04039
C014  1   1.078711   0.711030   0.366531    11.00000     0.12344     0.08534 =
      0.12674     0.03022     0.04255     0.03656
C015  1   0.794577   0.091510   0.323679    11.00000     0.07027     0.11648 =
      0.11799     0.03761     0.00607     0.04259
C016  1   0.200947  -0.175567   0.062384    11.00000     0.10410     0.04023 =
      0.10206    -0.00505    -0.00384     0.00089
C017  1   0.856431   0.302329   0.186099    11.00000     0.07892     0.11785 =
      0.25744     0.06353     0.09696     0.03636
C018  1   0.106243   0.101791   0.244874    11.00000     0.08863     0.12577 =
      0.08459     0.01434     0.02941     0.02278
C019  1  -0.036308  -0.000739   0.123408    11.00000     0.04900     0.17209 =
      0.11540     0.02352     0.00884    -0.00580
C01A  1   1.054235   0.936686   0.407318    11.00000     0.18601     0.08830 =
      0.12924    -0.00633    -0.01989     0.03304
C01B  1   0.541585  -0.082147   0.395485    11.00000     0.16417     0.07815 =
      0.09366     0.04900     0.01040     0.01761
C01C  1   0.776733   0.476960   0.249343    11.00000     0.16230     0.07623 =
      0.19166    -0.03620     0.10464    -0.05147
C01D  1   0.640178  -0.254937   0.046828    11.00000     0.18269     0.12465 =
      0.08893     0.00230     0.05195     0.07321
C01E  1   0.669222   0.372234   0.126062    11.00000     0.14150     0.11442 =
      0.11510     0.05559     0.03563     0.00467
C01F  1   1.145103   0.905587   0.448041    11.00000     0.17082     0.12425 =
      0.10320     0.01732    -0.02474     0.02329
C01G  1   1.002615   0.747037   0.326840    11.00000     0.11720     0.09238 =
      0.14959     0.01946    -0.00942     0.01550
C01H  1   0.485665  -0.347333   0.101237    11.00000     0.13179     0.05123 =
      0.26929     0.03966     0.08449     0.02606
C01I  1   0.980563   0.854874   0.347104    11.00000     0.16821     0.13144 =
      0.14894     0.01698    -0.00999     0.04931
C01J  1   1.175115   0.786665   0.424824    11.00000     0.14834     0.26640 =
      0.18219     0.16414     0.02815     0.04200
C01K  1   0.731248  -0.258146   0.167972    11.00000     0.15755     0.10216 =
      0.14235     0.04296     0.00665     0.07260
HKLF 4
END
