TITL CrystalPilot n0094 in P -1
REM CrystalPilot node n0094 tool=set_restraints
CELL 0.71073 10.15540 12.70750 20.80080 107.6910 100.3150 96.2330
ZERR 2 0.00170 0.00210 0.00440 0.0030 0.0030 0.0020
LATT 1
SFAC C H N P Ni La
UNIT 96.0 50.0 8.0 4.0 2.0 2.0

DFIX 1.3900 0.010 C28 C40
DFIX 1.3900 0.010 C40 C42
DFIX 1.3900 0.010 C42 C34
DFIX 1.3900 0.010 C34 C39
DFIX 1.3900 0.010 C39 C43
DFIX 1.3900 0.010 C43 C28
DFIX 1.3900 0.010 C28B C40B
DFIX 1.3900 0.010 C40B C42B
DFIX 1.3900 0.010 C42B C34B
DFIX 1.3900 0.010 C34B C39B
DFIX 1.3900 0.010 C39B C43B
DFIX 1.3900 0.010 C43B C28B
FLAT 0.01 C28 C40 C42 C34 C39 C43
FLAT 0.01 C28B C40B C42B C34B C39B C43B
SADI 0.020 P1 C22 P1 C16 P1 C22B P1 C16B
SADI 0.020 C22 C25 C22 C30 C16 C33 C16 C32 C22B C25B C22B C30B C16B C33B =
 C16B C32B
SIMU 0.010 0.020 P1 C22 C25 C30 C16 C33 C32 C22B C25B C30B C16B C33B C32B
SADI 0.020 C11 C36 C11 C38 C11 C31 C11 C36B C11 C38B C11 C31B
SIMU 0.010 0.020 C11 C36 C38 C31 C36B C38B C31B
SADI 0.020 C27 C44 C27 C37 C27 C41 C27 C44B C27 C37B C27 C41B
SIMU 0.010 0.020 C27 C44 C37 C41 C44B C37B C41B
SIMU 0.010 0.020 C28 C40 C42 C34 C39 C43 C28B C40B C42B C34B C39B C43B

WGHT 0.082660 10.758620
FVAR 0.18998 0.78356 0.83298 0.73009 0.71848
LA1   6   0.429120   0.291514   0.269800    11.00000     0.04311     0.03269 =
      0.04263     0.00566     0.00730     0.00965
NI1   5   0.466932   0.070252   0.207512    11.00000     0.04994     0.03168 =
      0.04631     0.00540     0.01023     0.01108
P1    4   0.260799   0.052337   0.145795    11.00000     0.05176     0.03267 =
      0.04687     0.00303     0.00505     0.00682
P2    4   0.511730   0.071691   0.314999    11.00000     0.06011     0.03571 =
      0.04891     0.00985     0.00951     0.01476
N1    3   0.252209   0.280826   0.169721    11.00000     0.05694     0.03269 =
      0.04729     0.00719     0.00348     0.01113
N2    3   0.382926   0.246817   0.375491    11.00000     0.06401     0.04104 =
      0.04833     0.01032     0.01673     0.01603
N3    3   0.627179   0.295774   0.216870    11.00000     0.04675     0.04319 =
      0.05372     0.00978     0.00986     0.00301
C1    1   0.294796   0.493786   0.270006    11.00000     0.05560     0.03464 =
      0.04900     0.00692     0.00468     0.01234
N4    1   0.116911   0.348026   0.082373    11.00000     0.08666     0.06330 =
      0.05254     0.01554     0.00402     0.01297
AFIX 43
HN4   2   0.104116   0.278882   0.047737    11.00000    -1.20000
AFIX 0
N5    1   0.244727   0.448844   0.315868    11.00000     0.07117     0.05389 =
      0.05470     0.00763     0.00681     0.02285
AFIX 43
HN5   2   0.155067   0.412149   0.304042    11.00000    -1.20000
AFIX 0
N6    1   0.328311   0.458194   0.380232    11.00000     0.07044     0.04623 =
      0.05247     0.00363     0.00898     0.01952
C2    1   0.194722   0.362869   0.149765    11.00000     0.05402     0.03867 =
      0.04590     0.01365     0.00602     0.00986
C3    1   0.569909  -0.143777   0.142684    11.00000     0.08383     0.03409 =
      0.05636     0.00564     0.02057     0.02717
N7    1   0.212272   0.472663   0.199350    11.00000     0.06195     0.04903 =
      0.05750     0.01214     0.00737     0.00784
C4    1   0.593617   0.187172   0.192582    11.00000     0.05137     0.04689 =
      0.05792     0.01339     0.01351     0.01211
C5    1   0.429680   0.551372   0.289026    11.00000     0.06231     0.03894 =
      0.06553     0.01285     0.00623     0.00566
AFIX 43
H5    2   0.463425   0.582916   0.259068    11.00000    -1.20000
AFIX 0
C6    1   0.274412   0.401964   0.425829    11.00000     0.06260     0.04958 =
      0.04232     0.00554     0.00643     0.01865
C7    1   0.219150   0.170820   0.115140    11.00000     0.07577     0.03961 =
      0.05043     0.00467    -0.00433     0.01430
C8    1   0.153779   0.557721   0.182694    11.00000     0.08384     0.04024 =
      0.06283     0.01518     0.00504     0.01599
AFIX 43
H8    2   0.166351   0.627790   0.216423    11.00000    -1.20000
AFIX 0
N8    3   0.529913  -0.061258   0.166208    11.00000     0.07190     0.06162 =
      0.06638     0.01891     0.01341     0.01283
C9    1   0.194264   0.450722   0.469737    11.00000     0.07143     0.07009 =
      0.04989     0.00485     0.01657     0.02764
AFIX 43
H9    2   0.172714   0.520289   0.470440    11.00000    -1.20000
AFIX 0
C10   1   0.460716   0.514898   0.397169    11.00000     0.06607     0.04369 =
      0.05138     0.00141    -0.00277     0.00832
AFIX 43
H10   2   0.515802   0.521871   0.439607    11.00000    -1.20000
AFIX 0
C11   1   0.735884   0.360499   0.198494    11.00000     0.05918     0.04956 =
      0.08430     0.01716     0.02996     0.00201
C12   1   0.059962   0.434662   0.067478    11.00000     0.10342     0.05914 =
      0.05116     0.02332    -0.00694     0.01045
AFIX 43
H12   2   0.008837   0.421552   0.023120    11.00000    -1.20000
AFIX 0
C13   1   0.309862   0.295232   0.421858    11.00000     0.06380     0.04540 =
      0.04460     0.00705     0.01240     0.01168
C14   1   0.176484   0.296750   0.511441    11.00000     0.08426     0.08079 =
      0.05869     0.01306     0.02648     0.01237
AFIX 43
H14   2   0.143092   0.261007   0.539635    11.00000    -1.20000
AFIX 0
C15   1   0.690010   0.134630   0.364890    11.00000     0.06584     0.05755 =
      0.06156     0.02000    -0.00191     0.01165
PART 1
C16   1   0.105420   0.016560   0.177200    21.00000     0.07511
PART 0
C17   1   0.514287   0.561705   0.353197    11.00000     0.06655     0.04522 =
      0.06360     0.00794    -0.00234    -0.00248
AFIX 43
H17   2   0.603765   0.598994   0.365672    11.00000    -1.20000
AFIX 0
C18   1   0.717344   0.263056   0.386419    11.00000     0.07296     0.06879 =
      0.07294     0.01674     0.00387     0.00402
AFIX 137
H18A  2   0.809750   0.291163   0.411751    11.00000    -1.50000
H18B  2   0.657035   0.293216   0.415134    11.00000    -1.50000
H18C  2   0.702350   0.285148   0.345843    11.00000    -1.50000
AFIX 0
C19   1   0.415970   0.138890   0.381000    11.00000     0.07919     0.04669 =
      0.04970     0.01611     0.01948     0.02139
C20   1   0.076691   0.540361   0.116566    11.00000     0.11324     0.05255 =
      0.06096     0.02281    -0.00004     0.02950
AFIX 43
H20   2   0.037844   0.597556   0.105715    11.00000    -1.20000
AFIX 0
C21   1   0.257962   0.244992   0.468438    11.00000     0.08306     0.06117 =
      0.05346     0.01754     0.02419     0.01489
AFIX 43
H21   2   0.279733   0.176274   0.469605    11.00000    -1.20000
AFIX 0
PART 1
C22   1   0.221000  -0.056050   0.057440    21.00000     0.07109
PART 0
C23   1   0.144839   0.399165   0.512866    11.00000     0.07574     0.09625 =
      0.06032     0.01585     0.02860     0.03465
AFIX 43
H23   2   0.091337   0.433653   0.542091    11.00000    -1.20000
AFIX 0
C24   1   0.497630  -0.073260   0.321780    11.00000     0.10461     0.04233 =
      0.07766     0.02489     0.01519     0.01978
PART 1
C25   1   0.336886  -0.040176   0.019225    21.00000     0.08809
PART 0
C26   1   0.359128  -0.142352   0.283301    11.00000     0.10709     0.05231 =
      0.10290     0.02447     0.01599    -0.00782
AFIX 137
H26A  2   0.354186  -0.215817   0.287436    11.00000    -1.50000
H26B  2   0.345230  -0.148608   0.235311    11.00000    -1.50000
H26C  2   0.290132  -0.106449   0.302754    11.00000    -1.50000
AFIX 0
C27   1   0.608646  -0.252718   0.114389    11.00000     0.09555     0.04538 =
      0.08529     0.01104     0.03116     0.03821
PART 1
C28   1   1.092752   0.715077   0.371313    51.00000     0.11502
PART 0
C29   1   0.790933   0.087764   0.323233    11.00000     0.06237     0.10920 =
      0.11468     0.03244     0.00821     0.03490
AFIX 137
H29A  2   0.881693   0.120904   0.349562    11.00000    -1.50000
H29B  2   0.776237   0.104758   0.280853    11.00000    -1.50000
H29C  2   0.778852   0.007918   0.312874    11.00000    -1.50000
AFIX 0
PART 1
C30   1   0.196327  -0.175307   0.062117    21.00000     0.09463
C31   1   0.856064   0.303891   0.190074    31.00000     0.13048
C32   1   0.100792   0.097684   0.243202    21.00000     0.10245
C33   1  -0.035644  -0.002610   0.126569    21.00000     0.12224
C34   1   1.057900   0.936371   0.406119    51.00000     0.15213
PART 0
C35   1   0.541747  -0.081102   0.394469    11.00000     0.18027     0.07200 =
      0.09800     0.04794     0.00628     0.02452
AFIX 137
H35A  2   0.530253  -0.158465   0.391693    11.00000    -1.50000
H35B  2   0.487010  -0.042528   0.423852    11.00000    -1.50000
H35C  2   0.635574  -0.047219   0.413329    11.00000    -1.50000
AFIX 0
PART 1
C36   1   0.773296   0.474799   0.249377    31.00000     0.17782
C37   1   0.639244  -0.259432   0.047233    41.00000     0.12781
C38   1   0.676919   0.370142   0.127024    31.00000     0.12654
AFIX 13
PART 0
H38   2   0.626071   0.363104   0.080761    10.83298    -1.20000
AFIX 0
PART 1
C39   1   1.149807   0.902210   0.448629    51.00000     0.15682
C40   1   1.001765   0.750722   0.329724    51.00000     0.15436
C41   1   0.483652  -0.346063   0.103907    41.00000     0.15199
C42   1   0.982773   0.859986   0.345975    51.00000     0.16834
C43   1   1.168238   0.791995   0.431812    51.00000     0.16775
C44   1   0.722443  -0.264549   0.165468    41.00000     0.14785
PART 2
C22B  1   0.247000  -0.041000   0.054000   -21.00000     0.07109
C25B  1   0.376200  -0.015800   0.028200   -21.00000     0.08809
C30B  1   0.213000  -0.165000   0.047000   -21.00000     0.09463
C16B  1   0.109800  -0.013500   0.168500   -21.00000     0.07511
C33B  1  -0.025900  -0.058900   0.114100   -21.00000     0.12224
C32B  1   0.098800   0.024800   0.238800   -21.00000     0.10245
C36B  1   0.839400   0.415400   0.265400   -31.00000     0.17782
C38B  1   0.670000   0.450000   0.175000   -31.00000     0.12654
AFIX 13
PART 0
H38B  2   0.614722   0.503813   0.164520    10.16702    -1.20000
AFIX 0
PART 2
C31B  1   0.797300   0.293300   0.141300   -31.00000     0.13048
C44B  1   0.753000  -0.255000   0.143000   -41.00000     0.14785
C37B  1   0.571400  -0.286600   0.036400   -41.00000     0.12781
C41B  1   0.511000  -0.331000   0.137000   -41.00000     0.15199
C28B  1   1.175900   0.744900   0.405900   -51.00000     0.11502
C43B  1   1.201700   0.855700   0.446700   -51.00000     0.16775
C39B  1   1.114500   0.926500   0.434500   -51.00000     0.15682
C34B  1   1.000000   0.884000   0.383000   -51.00000     0.15213
C42B  1   0.971300   0.772300   0.344300   -51.00000     0.16834
C40B  1   1.062600   0.703600   0.353600   -51.00000     0.15436
PART 0
HKLF 4
END
