TITL CrystalPilot n0180 in P -1
REM CrystalPilot node n0180 tool=assemble_asu
REM R1 = 0.0648 wR2 = 0.1993 GooF = 0.951
CELL 0.71073 10.15540 12.70750 20.80080 107.6910 100.3150 96.2330
ZERR 2 0.00170 0.00210 0.00440 0.0030 0.0030 0.0020
LATT 1
SFAC C H N P Ni La
UNIT 96.0 138.0 8.0 4.0 2.0 2.0

DFIX 1.3900 0.010 C28 C40
DFIX 1.3900 0.010 C40 C42
DFIX 1.3900 0.010 C42 C34
DFIX 1.3900 0.010 C34 C39
DFIX 1.3900 0.010 C39 C43
DFIX 1.3900 0.010 C43 C28
DFIX 1.3900 0.010 C28B C40B
DFIX 1.3900 0.010 C40B C42B
DFIX 1.3900 0.010 C42B C34B
DFIX 1.3900 0.010 C34B C39B
DFIX 1.3900 0.010 C39B C43B
DFIX 1.3900 0.010 C43B C28B
FLAT 0.01 C28 C40 C42 C34 C39 C43
FLAT 0.01 C28B C40B C42B C34B C39B C43B
SADI 0.020 P1 C22 P1 C16 P1 C22B P1 C16B
SADI 0.020 C22 C25 C22 C30 C16 C33 C16 C32 C22B C25B C22B C30B C16B C33B =
 C16B C32B
SIMU 0.010 0.020 P1 C22 C25 C30 C16 C33 C32 C22B C25B C30B C16B C33B C32B
SADI 0.020 C11 C36 C11 C38 C11 C31 C11 C36B C11 C38B C11 C31B
SIMU 0.010 0.020 C11 C36 C38 C31 C36B C38B C31B
SADI 0.020 C27 C44 C27 C37 C27 C41 C27 C44B C27 C37B C27 C41B
SIMU 0.010 0.020 C27 C44 C37 C41 C44B C37B C41B
SIMU 0.010 0.020 C28 C40 C42 C34 C39 C43 C28B C40B C42B C34B C39B C43B
DFIX 0.9800 0.020 C4 H0

WGHT 0.069430 14.286555
FVAR 0.18977 0.86639 0.77871 0.79292 0.71385
LA1   6   0.429133   0.291508   0.269794    11.00000     0.04354     0.03311 =
      0.04309     0.00579     0.00734     0.00978
NI1   5   0.466919   0.070241   0.207488    11.00000     0.04995     0.03179 =
      0.04648     0.00555     0.01019     0.01116
P1    4   0.260809   0.052355   0.145802    11.00000     0.05176     0.03296 =
      0.04700     0.00317     0.00491     0.00680
P2    4   0.511713   0.071654   0.315003    11.00000     0.06015     0.03565 =
      0.04892     0.00991     0.00961     0.01503
N1    3   0.251798   0.281032   0.169953    11.00000     0.05653     0.03243 =
      0.04724     0.00696     0.00329     0.01073
N2    3   0.383445   0.247103   0.375663    11.00000     0.06377     0.04141 =
      0.04772     0.01052     0.01623     0.01632
N3    3   0.627220   0.295544   0.216779    11.00000     0.04634     0.04386 =
      0.05374     0.01082     0.00944     0.00310
C1    1   0.295008   0.493767   0.270053    11.00000     0.05501     0.03431 =
      0.04889     0.00586     0.00372     0.01295
C45   1   0.116918   0.348919   0.082899    11.00000     0.07498     0.04728 =
      0.04096     0.00909     0.00328     0.01120
AFIX 43
H45   2   0.103591   0.279675   0.048301    11.00000    -1.20000
AFIX 0
C46   1   0.245530   0.449737   0.316182    11.00000     0.05308     0.04120 =
      0.04654     0.00526     0.00525     0.01521
AFIX 43
H46   2   0.155638   0.413593   0.304441    11.00000    -1.20000
AFIX 0
C47   1   0.327851   0.458333   0.380327    11.00000     0.05797     0.03546 =
      0.04148     0.00168     0.00765     0.01491
C2    1   0.195008   0.363016   0.149841    11.00000     0.05426     0.03784 =
      0.04556     0.01317     0.00510     0.00924
C3    1   0.569994  -0.144152   0.142754    11.00000     0.08306     0.03352 =
      0.05484     0.00546     0.02039     0.02635
C48   1   0.211773   0.472311   0.199094    11.00000     0.05157     0.03822 =
      0.04600     0.00904     0.00694     0.00596
C4    1   0.593653   0.188127   0.193175    11.00000     0.05167     0.04716 =
      0.05639     0.01261     0.01383     0.01363
C5    1   0.429227   0.550616   0.289250    11.00000     0.06314     0.03847 =
      0.06437     0.01430     0.00745     0.00426
AFIX 43
H5    2   0.463391   0.581764   0.259232    11.00000    -1.20000
AFIX 0
C6    1   0.274438   0.402047   0.425832    11.00000     0.06233     0.04940 =
      0.04214     0.00447     0.00600     0.01837
C7    1   0.219099   0.170787   0.115598    11.00000     0.07356     0.04030 =
      0.04921     0.00517    -0.00240     0.01408
AFIX 23
H7A   2   0.122712   0.155855   0.094624    11.00000    -1.20000
H7B   2   0.267985   0.173573   0.079968    11.00000    -1.20000
AFIX 0
C8    1   0.153894   0.557839   0.182610    11.00000     0.08113     0.04200 =
      0.06110     0.01534     0.00491     0.01650
AFIX 43
H8    2   0.166091   0.627850   0.216353    11.00000    -1.20000
AFIX 0
N4    3   0.529784  -0.061530   0.166145    11.00000     0.07287     0.06073 =
      0.06591     0.01783     0.01386     0.01296
C9    1   0.193710   0.450769   0.469684    11.00000     0.07174     0.06960 =
      0.05065     0.00478     0.01670     0.02879
AFIX 43
H9    2   0.171603   0.520042   0.470042    11.00000    -1.20000
AFIX 0
C10   1   0.459793   0.515194   0.396908    11.00000     0.06844     0.04602 =
      0.04808     0.00098    -0.00442     0.00942
AFIX 43
H10   2   0.514982   0.522641   0.439411    11.00000    -1.20000
AFIX 0
C11   1   0.735814   0.360482   0.198443    11.00000     0.06284     0.05136 =
      0.09313     0.02097     0.03395     0.00260
C12   1   0.060128   0.435158   0.067671    11.00000     0.10173     0.06187 =
      0.05186     0.02456    -0.00704     0.01135
AFIX 43
H12   2   0.008547   0.421731   0.023368    11.00000    -1.20000
AFIX 0
C13   1   0.309925   0.295041   0.422084    11.00000     0.06234     0.04518 =
      0.04403     0.00711     0.01202     0.01166
C14   1   0.176338   0.296560   0.511401    11.00000     0.08244     0.08406 =
      0.05666     0.01306     0.02445     0.01145
AFIX 43
H14   2   0.142528   0.260423   0.539309    11.00000    -1.20000
AFIX 0
C15   1   0.690130   0.135298   0.364909    11.00000     0.06759     0.05864 =
      0.06066     0.02238    -0.00276     0.01069
AFIX 13
H15   2   0.703149   0.115768   0.407440    11.00000    -1.20000
AFIX 0
PART 1
C16   1   0.106788   0.017073   0.177979    21.00000     0.04952     0.07120 =
      0.07066     0.02070     0.00264    -0.00217
AFIX 13
H16   2   0.120017  -0.055690   0.182723    21.00000    -1.20000
AFIX 0
PART 0
C17   1   0.513053   0.561367   0.353047    11.00000     0.06553     0.04415 =
      0.06524     0.00806    -0.00328    -0.00445
AFIX 43
H17   2   0.602484   0.598755   0.365512    11.00000    -1.20000
AFIX 0
C18   1   0.715500   0.264199   0.386635    11.00000     0.07619     0.06822 =
      0.07283     0.01656     0.00254     0.00003
AFIX 137
H18A  2   0.807772   0.293171   0.411964    11.00000    -1.50000
H18B  2   0.654842   0.293427   0.415383    11.00000    -1.50000
H18C  2   0.699705   0.286372   0.346106    11.00000    -1.50000
AFIX 0
C19   1   0.416200   0.139232   0.380806    11.00000     0.07751     0.04723 =
      0.04791     0.01522     0.01828     0.01911
AFIX 23
H19A  2   0.470056   0.151596   0.426776    11.00000    -1.20000
H19B  2   0.332597   0.088817   0.374665    11.00000    -1.20000
AFIX 0
C20   1   0.077666   0.539997   0.116036    11.00000     0.10966     0.05379 =
      0.06179     0.02357     0.00014     0.02887
AFIX 43
H20   2   0.039955   0.597385   0.104824    11.00000    -1.20000
AFIX 0
C21   1   0.258248   0.245704   0.468476    11.00000     0.08246     0.06030 =
      0.05266     0.01658     0.02273     0.01465
AFIX 43
H21   2   0.280493   0.177185   0.469793    11.00000    -1.20000
AFIX 0
PART 1
C22   1   0.218258  -0.057611   0.057743    21.00000     0.06823     0.04595 =
      0.05614    -0.00329    -0.00494     0.00810
AFIX 13
H22   2   0.132923  -0.049178   0.030741    21.00000    -1.20000
AFIX 0
PART 0
C23   1   0.144901   0.400052   0.512898    11.00000     0.07739     0.09280 =
      0.06030     0.01475     0.02914     0.03455
AFIX 43
H23   2   0.092009   0.434967   0.542343    11.00000    -1.20000
AFIX 0
C24   1   0.496337  -0.073160   0.322276    11.00000     0.10231     0.04242 =
      0.07759     0.02244     0.02129     0.02330
AFIX 13
H24   2   0.566001  -0.105524   0.299424    11.00000    -1.20000
AFIX 0
PART 1
C25   1   0.331347  -0.041504   0.018039    21.00000     0.08683     0.06501 =
      0.05610    -0.00151     0.00690     0.01858
AFIX 137
H25A  2   0.309175  -0.097892  -0.026941    21.00000    -1.50000
H25B  2   0.416913  -0.048165   0.043528    21.00000    -1.50000
H25C  2   0.337537   0.031455   0.013101    21.00000    -1.50000
AFIX 0
PART 0
C26   1   0.359850  -0.142286   0.284053    11.00000     0.10583     0.05233 =
      0.10360     0.02497     0.01819    -0.00543
AFIX 137
H26A  2   0.355177  -0.215391   0.288722    11.00000    -1.50000
H26B  2   0.346538  -0.149367   0.235953    11.00000    -1.50000
H26C  2   0.290317  -0.106425   0.302974    11.00000    -1.50000
AFIX 0
C27   1   0.606812  -0.253620   0.114277    11.00000     0.10585     0.04672 =
      0.09000     0.01461     0.03605     0.04296
PART 1
C28   1   1.095749   0.715356   0.372738    51.00000     0.12998     0.08613 =
      0.10300     0.02217     0.01117     0.03477
AFIX 43
H28   2   1.109783   0.641471   0.362113    51.00000    -1.20000
AFIX 0
PART 0
C29   1   0.791965   0.087207   0.322780    11.00000     0.06206     0.10438 =
      0.10887     0.02891     0.01014     0.03385
AFIX 137
H29A  2   0.882806   0.120497   0.348931    11.00000    -1.50000
H29B  2   0.777025   0.103544   0.280186    11.00000    -1.50000
H29C  2   0.779875   0.007445   0.312825    11.00000    -1.50000
AFIX 0
PART 1
C30   1   0.194298  -0.176562   0.063561    21.00000     0.09861     0.04778 =
      0.08519    -0.00629    -0.00400     0.00515
AFIX 137
H30A  2   0.172706  -0.231562   0.018099    21.00000    -1.50000
H30B  2   0.120263  -0.183348   0.085807    21.00000    -1.50000
H30C  2   0.275079  -0.188478   0.090383    21.00000    -1.50000
AFIX 0
C31   1   0.862642   0.307592   0.195973    31.00000     0.06053     0.09922 =
      0.13949     0.02821     0.04202     0.00722
AFIX 137
H31A  2   0.929297   0.353181   0.183875    31.00000    -1.50000
H31B  2   0.840060   0.233982   0.161936    31.00000    -1.50000
H31C  2   0.898782   0.302162   0.240546    31.00000    -1.50000
AFIX 0
C32   1   0.101173   0.101575   0.244940    21.00000     0.06159     0.09471 =
      0.07573     0.01341     0.01437     0.00862
AFIX 137
H32A  2   0.020513   0.079495   0.259028    21.00000    -1.50000
H32B  2   0.099660   0.173589   0.239148    21.00000    -1.50000
H32C  2   0.179735   0.105975   0.279700    21.00000    -1.50000
AFIX 0
C33   1  -0.034045   0.000404   0.128287    21.00000     0.05411     0.11308 =
      0.09919     0.00624     0.00512    -0.00306
AFIX 137
H33A  2  -0.105042  -0.017247   0.150162    21.00000    -1.50000
H33B  2  -0.039848  -0.059937   0.086199    21.00000    -1.50000
H33C  2  -0.043966   0.068133   0.117901    21.00000    -1.50000
AFIX 0
C34   1   1.054503   0.936581   0.404671    51.00000     0.13258     0.08617 =
      0.10624     0.01079    -0.00891     0.03832
AFIX 43
H34   2   1.040535   1.010473   0.415165    51.00000    -1.20000
AFIX 0
PART 0
C35   1   0.538994  -0.081101   0.393816    11.00000     0.18047     0.07362 =
      0.09887     0.05078     0.00936     0.02595
AFIX 137
H35A  2   0.526678  -0.158481   0.390998    11.00000    -1.50000
H35B  2   0.484443  -0.042103   0.423147    11.00000    -1.50000
H35C  2   0.632968  -0.047765   0.412766    11.00000    -1.50000
AFIX 0
PART 1
C36   1   0.766778   0.480297   0.247606    31.00000     0.11340     0.06477 =
      0.12367     0.01142     0.03860    -0.02046
AFIX 137
H36A  2   0.837264   0.522605   0.235789    31.00000    -1.50000
H36B  2   0.796324   0.480766   0.294206    31.00000    -1.50000
H36C  2   0.686358   0.513406   0.243960    31.00000    -1.50000
AFIX 0
C37   1   0.647634  -0.257356   0.048149    41.00000     0.11090     0.08620 =
      0.09825     0.00388     0.03424     0.02285
AFIX 137
H37A  2   0.672666  -0.328766   0.027903    41.00000    -1.50000
H37B  2   0.723653  -0.198780   0.057463    41.00000    -1.50000
H37C  2   0.572797  -0.246921   0.016617    41.00000    -1.50000
AFIX 0
C38   1   0.677955   0.368547   0.126316    31.00000     0.10002     0.08673 =
      0.09621     0.04047     0.02659    -0.00707
AFIX 137
H38A  2   0.746482   0.410418   0.113031    31.00000    -1.50000
H38B  2   0.600647   0.405732   0.128259    31.00000    -1.50000
H38C  2   0.650863   0.294491   0.092939    31.00000    -1.50000
AFIX 0
C39   1   1.143041   0.905774   0.451661    51.00000     0.13529     0.09245 =
      0.10186     0.01619    -0.00528     0.03642
AFIX 43
H39   2   1.189254   0.958198   0.493908    51.00000    -1.20000
AFIX 0
C40   1   1.008604   0.748990   0.327378    51.00000     0.12966     0.09084 =
      0.11066     0.01114     0.00310     0.03893
AFIX 43
H40   2   0.962621   0.696452   0.285127    51.00000    -1.20000
AFIX 0
C41   1   0.482954  -0.345729   0.098878    41.00000     0.13862     0.04815 =
      0.13376     0.01519     0.04006     0.01964
AFIX 137
H41A  2   0.507313  -0.417926   0.080092    41.00000    -1.50000
H41B  2   0.410372  -0.335556   0.066001    41.00000    -1.50000
H41C  2   0.453825  -0.341229   0.140923    41.00000    -1.50000
AFIX 0
C42   1   0.987241   0.858168   0.342561    51.00000     0.13572     0.09136 =
      0.10706     0.00903    -0.00403     0.03819
AFIX 43
H42   2   0.927541   0.878659   0.310889    51.00000    -1.20000
AFIX 0
C43   1   1.161183   0.795633   0.434432    51.00000     0.13452     0.09239 =
      0.10346     0.02377     0.00555     0.03527
AFIX 43
H43   2   1.220483   0.774741   0.466058    51.00000    -1.20000
AFIX 0
C44   1   0.715523  -0.265994   0.169364    41.00000     0.13931     0.08456 =
      0.11021     0.02817     0.01616     0.05497
AFIX 137
H44A  2   0.743096  -0.337454   0.152748    41.00000    -1.50000
H44B  2   0.680786  -0.261215   0.209967    41.00000    -1.50000
H44C  2   0.792251  -0.207231   0.180628    41.00000    -1.50000
AFIX 0
PART 2
C22B  1   0.261281  -0.043951   0.057280   -21.00000     0.06749     0.04407 =
      0.05374    -0.00022     0.00196     0.00668
AFIX 13
H22B  2   0.193947  -0.026680   0.023623   -21.00000    -1.20000
AFIX 0
C25B  1   0.390148  -0.022515   0.029931   -21.00000     0.07459     0.05259 =
      0.05066    -0.00467     0.00185     0.00667
AFIX 137
H1    2   0.380504  -0.075771  -0.015407   -21.00000    -1.50000
H2    2   0.468061  -0.030572   0.060672   -21.00000    -1.50000
H3    2   0.401837   0.052098   0.027559   -21.00000    -1.50000
AFIX 0
C30B  1   0.217072  -0.166081   0.053738   -21.00000     0.07228     0.04774 =
      0.06015    -0.00543     0.00604     0.00539
AFIX 137
H4    2   0.216935  -0.216159   0.008636   -21.00000    -1.50000
H6    2   0.127357  -0.174892   0.062248   -21.00000    -1.50000
H7    2   0.279431  -0.183143   0.088128   -21.00000    -1.50000
AFIX 0
C16B  1   0.087270   0.006039   0.156953   -21.00000     0.05286     0.06691 =
      0.06779     0.01250     0.00405     0.00215
AFIX 13
H16B  2   0.046708   0.070222   0.151484   -21.00000    -1.20000
AFIX 0
C33B  1  -0.033761  -0.068986   0.099018   -21.00000     0.06013     0.09190 =
      0.08581     0.01396     0.00857     0.00212
AFIX 137
H11   2  -0.110849  -0.080111   0.118505   -21.00000    -1.50000
H13   2  -0.009382  -0.140205   0.077638   -21.00000    -1.50000
H18   2  -0.056229  -0.033242   0.064925   -21.00000    -1.50000
AFIX 0
C32B  1   0.098059  -0.009232   0.228325   -21.00000     0.05017     0.08469 =
      0.07470     0.01412     0.01060     0.00397
AFIX 137
H19   2   0.008910  -0.032954   0.233773   -21.00000    -1.50000
H25   2   0.138746   0.060686   0.264062   -21.00000    -1.50000
H26   2   0.153242  -0.064940   0.231598   -21.00000    -1.50000
AFIX 0
C36B  1   0.820870   0.439654   0.269096   -31.00000     0.08890     0.06698 =
      0.12163     0.01242     0.03529    -0.01806
AFIX 137
H27   2   0.894740   0.485641   0.262070   -31.00000    -1.50000
H29   2   0.856313   0.396071   0.296454   -31.00000    -1.50000
H30   2   0.764528   0.486556   0.292765   -31.00000    -1.50000
AFIX 0
C38B  1   0.672269   0.459055   0.187337   -31.00000     0.09644     0.07847 =
      0.11421     0.02882     0.03143    -0.00533
AFIX 137
H31   2   0.736220   0.506673   0.175040   -31.00000    -1.50000
H32   2   0.648783   0.501152   0.229242   -31.00000    -1.50000
H33   2   0.591898   0.431243   0.150755   -31.00000    -1.50000
AFIX 0
C31B  1   0.832540   0.288362   0.165809   -31.00000     0.04581     0.07208 =
      0.10263     0.00811     0.04549     0.00919
AFIX 137
H35   2   0.900806   0.334323   0.154927   -31.00000    -1.50000
H36   2   0.782550   0.230594   0.124186   -31.00000    -1.50000
H37   2   0.875205   0.254731   0.197754   -31.00000    -1.50000
AFIX 0
C44B  1   0.752741  -0.255245   0.145254   -41.00000     0.12030     0.07220 =
      0.10149     0.02352     0.02848     0.05132
AFIX 137
H38   2   0.773719  -0.328425   0.125432   -41.00000    -1.50000
H41   2   0.765230  -0.237695   0.194448   -41.00000    -1.50000
H44   2   0.811959  -0.200648   0.135557   -41.00000    -1.50000
AFIX 0
C37B  1   0.580847  -0.288068   0.036594   -41.00000     0.11156     0.06895 =
      0.09322     0.00015     0.03827     0.03234
AFIX 137
H47   2   0.605575  -0.360338   0.018564   -41.00000    -1.50000
H48   2   0.634211  -0.233985   0.023681   -41.00000    -1.50000
H49   2   0.486191  -0.291856   0.017980   -41.00000    -1.50000
AFIX 0
C41B  1   0.521598  -0.327961   0.141285   -41.00000     0.13649     0.05206 =
      0.11221     0.02837     0.03007     0.03594
AFIX 137
H50   2   0.539099  -0.403178   0.124997   -41.00000    -1.50000
H51   2   0.427107  -0.327427   0.125058   -41.00000    -1.50000
H52   2   0.544364  -0.300583   0.190986   -41.00000    -1.50000
AFIX 0
C28B  1   1.179761   0.746842   0.407166   -51.00000     0.13258     0.08629 =
      0.10043     0.02067     0.00848     0.03306
AFIX 43
H28B  2   1.239787   0.698912   0.413990   -51.00000    -1.20000
AFIX 0
C43B  1   1.207047   0.861062   0.444704   -51.00000     0.13557     0.09015 =
      0.10153     0.01723     0.00502     0.03317
AFIX 43
H43B  2   1.286828   0.893789   0.478284   -51.00000    -1.20000
AFIX 0
C39B  1   1.109462   0.923714   0.429596   -51.00000     0.13573     0.09084 =
      0.10584     0.01515    -0.00097     0.03556
AFIX 43
H39B  2   1.124630   1.000281   0.453672   -51.00000    -1.20000
AFIX 0
C34B  1   0.990041   0.875698   0.379717   -51.00000     0.13510     0.09154 =
      0.10663     0.01382    -0.00135     0.03741
AFIX 43
H34B  2   0.929322   0.922882   0.372415   -51.00000    -1.20000
AFIX 0
C42B  1   0.953671   0.763411   0.339893   -51.00000     0.13419     0.09251 =
      0.10774     0.01317     0.00398     0.03589
AFIX 43
H42B  2   0.873973   0.730206   0.306334   -51.00000    -1.20000
AFIX 0
C40B  1   1.057528   0.709714   0.359157   -51.00000     0.13100     0.08716 =
      0.10280     0.02015     0.00623     0.03560
AFIX 43
H40B  2   1.041885   0.633198   0.334889   -51.00000    -1.20000
AFIX 0
PART 0
H0    2   0.643600   0.147100   0.153700    11.00000     0.06000
HKLF 4
END
