TITL CrystalPilot n0007 in P -1
REM CrystalPilot node n0007 tool=refine
REM R1 = 0.0955 wR2 = 0.3114 GooF = 2.291
CELL 0.71073 10.15540 12.70750 20.80080 107.6910 100.3150 96.2330
ZERR 2 0.00170 0.00210 0.00440 0.0030 0.0030 0.0020
LATT 1
SFAC C N P Ni La
UNIT 88.0 16.0 4.0 2.0 2.0

WGHT 0.100000 0.000000
FVAR 0.18706
LA01  5   0.429123   0.291525   0.269811    11.00000     0.04212     0.03394 =
      0.04268     0.00660     0.00779     0.00919
NI02  4   0.466813   0.070243   0.207459    11.00000     0.04892     0.03308 =
      0.04619     0.00630     0.01102     0.01070
P003  3   0.260956   0.052121   0.145771    11.00000     0.04710
P004  3   0.511609   0.071653   0.314952    11.00000     0.04850
N005  2   0.251827   0.280569   0.169914    11.00000     0.04575
N006  2   0.381962   0.246128   0.375174    11.00000     0.05204
N007  2   0.629001   0.297931   0.218434    11.00000     0.05229
C008  1   0.295947   0.494151   0.269353    11.00000     0.04735
N009  2   0.116705   0.349195   0.083447    11.00000     0.06683
N00A  2   0.246296   0.448243   0.315637    11.00000     0.06032
N00B  2   0.328819   0.456958   0.379762    11.00000     0.05993
C00C  1   0.194653   0.363392   0.149539    11.00000     0.04795
C00D  1   0.571820  -0.143707   0.142357    11.00000     0.05917
N00E  2   0.211600   0.471258   0.199249    11.00000     0.05610
C00F  1   0.592531   0.187589   0.192740    11.00000     0.05532
C00G  1   0.431462   0.551910   0.289251    11.00000     0.05379
C00H  1   0.275243   0.401954   0.425568    11.00000     0.05322
C00I  1   0.220310   0.172692   0.115921    11.00000     0.05600
C00J  1   0.152937   0.559929   0.184354    11.00000     0.06334
N00K  2   0.530863  -0.061745   0.165511    11.00000     0.06928
C00L  1   0.193785   0.452375   0.469569    11.00000     0.06633
C00M  1   0.462624   0.513851   0.397175    11.00000     0.06219
C00N  1   0.732963   0.358497   0.198114    11.00000     0.06273
C00O  1   0.059202   0.435691   0.067857    11.00000     0.06716
C00P  1   0.309230   0.295110   0.422054    11.00000     0.05236
C00Q  1   0.175412   0.298392   0.512050    11.00000     0.07961
C00R  1   0.690241   0.134740   0.364566    11.00000     0.06238
C00S  1   0.105894   0.014959   0.175198    11.00000     0.07031
C00T  1   0.514424   0.561839   0.353086    11.00000     0.06162
C00U  1   0.714774   0.263724   0.385310    11.00000     0.07361
C00V  1   0.417330   0.139108   0.380969    11.00000     0.05608
C00W  1   0.075484   0.540154   0.115639    11.00000     0.06811
C00X  1   0.256723   0.244682   0.468455    11.00000     0.06307
C00Y  1   0.222464  -0.056573   0.056033    11.00000     0.06899
C00Z  1   0.144362   0.397595   0.514203    11.00000     0.07645
C010  1   0.496582  -0.073142   0.321219    11.00000     0.07422
C011  1   0.332952  -0.042107   0.019380    11.00000     0.07920
C012  1   0.354083  -0.145050   0.281316    11.00000     0.08881
C013  1   0.604943  -0.253182   0.114030    11.00000     0.07141
C014  1   1.078555   0.710573   0.366162    11.00000     0.10671
C015  1   0.794760   0.091616   0.323251    11.00000     0.08596
C016  1   0.201629  -0.175732   0.061741    11.00000     0.08513
C017  1   0.856535   0.302359   0.185382    11.00000     0.12135
C018  1   0.106798   0.101732   0.244902    11.00000     0.10012
C019  1  -0.036050  -0.000372   0.123288    11.00000     0.11095
C01A  1   1.054018   0.936845   0.407435    11.00000     0.11966
C01B  1   0.542056  -0.082954   0.395319    11.00000     0.09668
C01C  1   0.777216   0.477060   0.248993    11.00000     0.11917
C01D  1   0.640201  -0.255211   0.047335    11.00000     0.12092
C01E  1   0.669047   0.372799   0.125536    11.00000     0.11674
C01F  1   1.145315   0.905452   0.447949    11.00000     0.12944
C01G  1   1.002233   0.746393   0.326800    11.00000     0.12133
C01H  1   0.486258  -0.348323   0.100589    11.00000     0.12108
C01I  1   0.980506   0.854587   0.346983    11.00000     0.15120
C01J  1   1.175340   0.786516   0.424342    11.00000     0.15488
C01K  1   0.731131  -0.257879   0.167820    11.00000     0.11536
HKLF 4
END
