TITL CrystalPilot n0139 in P -1
REM CrystalPilot node n0139 tool=edit_atoms
REM R1 = 0.065 wR2 = 0.2094 GooF = 0.951
CELL 0.71073 10.15540 12.70750 20.80080 107.6910 100.3150 96.2330
ZERR 2 0.00170 0.00210 0.00440 0.0030 0.0030 0.0020
LATT 1
SFAC C H N P Ni La
UNIT 96.0 136.0 8.0 4.0 2.0 2.0

DFIX 1.3900 0.010 C28 C40
DFIX 1.3900 0.010 C40 C42
DFIX 1.3900 0.010 C42 C34
DFIX 1.3900 0.010 C34 C39
DFIX 1.3900 0.010 C39 C43
DFIX 1.3900 0.010 C43 C28
DFIX 1.3900 0.010 C28B C40B
DFIX 1.3900 0.010 C40B C42B
DFIX 1.3900 0.010 C42B C34B
DFIX 1.3900 0.010 C34B C39B
DFIX 1.3900 0.010 C39B C43B
DFIX 1.3900 0.010 C43B C28B
FLAT 0.01 C28 C40 C42 C34 C39 C43
FLAT 0.01 C28B C40B C42B C34B C39B C43B
SADI 0.020 P1 C22 P1 C16 P1 C22B P1 C16B
SADI 0.020 C22 C25 C22 C30 C16 C33 C16 C32 C22B C25B C22B C30B C16B C33B =
 C16B C32B
SIMU 0.010 0.020 P1 C22 C25 C30 C16 C33 C32 C22B C25B C30B C16B C33B C32B
SADI 0.020 C11 C36 C11 C38 C11 C31 C11 C36B C11 C38B C11 C31B
SIMU 0.010 0.020 C11 C36 C38 C31 C36B C38B C31B
SADI 0.020 C27 C44 C27 C37 C27 C41 C27 C44B C27 C37B C27 C41B
SIMU 0.010 0.020 C27 C44 C37 C41 C44B C37B C41B
SIMU 0.010 0.020 C28 C40 C42 C34 C39 C43 C28B C40B C42B C34B C39B C43B

WGHT 0.092580 12.699162
FVAR 0.18980 0.87736 0.78389 0.80647 0.71748
LA1   6   0.429130   0.291511   0.269795    11.00000     0.04355     0.03313 =
      0.04307     0.00579     0.00740     0.00975
NI1   5   0.466924   0.070242   0.207481    11.00000     0.04993     0.03183 =
      0.04651     0.00551     0.01030     0.01112
P1    4   0.260799   0.052405   0.145812    11.00000     0.05175     0.03305 =
      0.04707     0.00320     0.00501     0.00677
P2    4   0.511643   0.071644   0.314984    11.00000     0.06014     0.03561 =
      0.04892     0.00984     0.00956     0.01491
N1    3   0.251843   0.281102   0.169978    11.00000     0.05614     0.03283 =
      0.04723     0.00690     0.00339     0.01053
N2    3   0.383349   0.247085   0.375651    11.00000     0.06478     0.04123 =
      0.04741     0.01031     0.01638     0.01614
N3    3   0.627376   0.295441   0.216857    11.00000     0.04604     0.04377 =
      0.05416     0.01067     0.00951     0.00307
C1    1   0.294856   0.493791   0.270060    11.00000     0.05480     0.03451 =
      0.04910     0.00594     0.00355     0.01244
C45   1   0.117034   0.348933   0.082931    11.00000     0.07529     0.04744 =
      0.04140     0.00936     0.00352     0.01118
AFIX 43
H45   2   0.103975   0.279761   0.048294    11.00000    -1.20000
AFIX 0
C46   1   0.245445   0.449661   0.316172    11.00000     0.05306     0.04172 =
      0.04638     0.00511     0.00501     0.01533
AFIX 43
H46   2   0.155595   0.413433   0.304461    11.00000    -1.20000
AFIX 0
C47   1   0.327960   0.458370   0.380248    11.00000     0.05735     0.03548 =
      0.04179     0.00174     0.00743     0.01447
C2    1   0.195057   0.362991   0.149844    11.00000     0.05426     0.03797 =
      0.04546     0.01307     0.00530     0.00954
C3    1   0.569864  -0.144193   0.142648    11.00000     0.08421     0.03357 =
      0.05565     0.00554     0.02075     0.02651
C48   1   0.211895   0.472420   0.199069    11.00000     0.05125     0.03817 =
      0.04613     0.00918     0.00689     0.00585
C4    1   0.593986   0.187948   0.192765    11.00000     0.05144     0.04605 =
      0.05719     0.01281     0.01242     0.01252
C5    1   0.429187   0.550695   0.289214    11.00000     0.06345     0.03811 =
      0.06470     0.01420     0.00736     0.00424
AFIX 43
H5    2   0.463330   0.581887   0.259209    11.00000    -1.20000
AFIX 0
C6    1   0.274342   0.401992   0.425814    11.00000     0.06275     0.04971 =
      0.04189     0.00437     0.00621     0.01871
C7    1   0.219277   0.170825   0.115552    11.00000     0.07306     0.04051 =
      0.04926     0.00476    -0.00217     0.01421
AFIX 23
H7A   2   0.127277   0.164152   0.089948    11.00000    -1.20000
H7B   2   0.279578   0.172689   0.084489    11.00000    -1.20000
AFIX 0
C8    1   0.154011   0.557845   0.182591    11.00000     0.08110     0.04215 =
      0.06135     0.01558     0.00481     0.01638
AFIX 43
H8    2   0.166330   0.627894   0.216311    11.00000    -1.20000
AFIX 0
N4    3   0.529872  -0.061599   0.166156    11.00000     0.07251     0.06017 =
      0.06662     0.01777     0.01443     0.01383
C9    1   0.193780   0.450757   0.469706    11.00000     0.07245     0.07027 =
      0.05057     0.00496     0.01723     0.02948
AFIX 43
H9    2   0.171808   0.520100   0.470142    11.00000    -1.20000
AFIX 0
C10   1   0.459919   0.515131   0.396971    11.00000     0.06854     0.04589 =
      0.04895     0.00091    -0.00467     0.00936
AFIX 43
H10   2   0.515087   0.522496   0.439464    11.00000    -1.20000
AFIX 0
C11   1   0.735806   0.360456   0.198443    11.00000     0.06193     0.05192 =
      0.09345     0.02086     0.03436     0.00239
C12   1   0.059750   0.435230   0.067694    11.00000     0.10121     0.06197 =
      0.05169     0.02458    -0.00636     0.01162
AFIX 43
H12   2   0.007817   0.421753   0.023460    11.00000    -1.20000
AFIX 0
C13   1   0.309747   0.295019   0.422040    11.00000     0.06247     0.04500 =
      0.04415     0.00715     0.01221     0.01145
C14   1   0.176305   0.296505   0.511404    11.00000     0.08249     0.08358 =
      0.05725     0.01291     0.02428     0.01104
AFIX 43
H14   2   0.142529   0.260312   0.539294    11.00000    -1.20000
AFIX 0
C15   1   0.690461   0.135351   0.364948    11.00000     0.06739     0.05910 =
      0.06050     0.02230    -0.00260     0.01046
AFIX 13
H15   2   0.706650   0.116589   0.407718    11.00000    -1.20000
AFIX 0
PART 1
C16   1   0.106296   0.017125   0.177710    21.00000     0.04940     0.07070 =
      0.06962     0.01991     0.00339    -0.00281
AFIX 13
H16   2   0.130017  -0.047387   0.190856    21.00000    -1.20000
AFIX 0
PART 0
C17   1   0.513027   0.561322   0.353052    11.00000     0.06536     0.04415 =
      0.06488     0.00804    -0.00299    -0.00491
AFIX 43
H17   2   0.602465   0.598690   0.365502    11.00000    -1.20000
AFIX 0
C18   1   0.715919   0.263955   0.386362    11.00000     0.07440     0.06855 =
      0.07342     0.01625     0.00264     0.00081
AFIX 137
H18A  2   0.810412   0.292477   0.407428    11.00000    -1.50000
H18B  2   0.662076   0.293826   0.418863    11.00000    -1.50000
H18C  2   0.691176   0.285918   0.346175    11.00000    -1.50000
AFIX 0
C19   1   0.416431   0.139397   0.380852    11.00000     0.07714     0.04719 =
      0.04837     0.01534     0.01832     0.01893
AFIX 23
H19A  2   0.463938   0.152534   0.428139    11.00000    -1.20000
H19B  2   0.331663   0.088708   0.372041    11.00000    -1.20000
AFIX 0
C20   1   0.077567   0.539953   0.116071    11.00000     0.11068     0.05347 =
      0.06119     0.02306     0.00013     0.02942
AFIX 43
H20   2   0.039848   0.597374   0.104907    11.00000    -1.20000
AFIX 0
C21   1   0.258217   0.245687   0.468478    11.00000     0.08274     0.06057 =
      0.05197     0.01599     0.02315     0.01481
AFIX 43
H21   2   0.280567   0.177209   0.469819    11.00000    -1.20000
AFIX 0
PART 1
C22   1   0.218691  -0.057575   0.057587    21.00000     0.06803     0.04626 =
      0.05611    -0.00316    -0.00482     0.00818
AFIX 13
H22   2   0.138041  -0.048829   0.027170    21.00000    -1.20000
AFIX 0
PART 0
C23   1   0.144811   0.399821   0.512970    11.00000     0.07724     0.09326 =
      0.06108     0.01476     0.02965     0.03461
AFIX 43
H23   2   0.091855   0.434646   0.542407    11.00000    -1.20000
AFIX 0
C24   1   0.496165  -0.073175   0.322298    11.00000     0.10174     0.04248 =
      0.07714     0.02204     0.02102     0.02364
AFIX 13
H24   2   0.558189  -0.107616   0.294445    11.00000    -1.20000
AFIX 0
PART 1
C25   1   0.331422  -0.041383   0.018142    21.00000     0.08685     0.06557 =
      0.05639    -0.00075     0.00758     0.01892
AFIX 137
H25A  2   0.315918  -0.103346  -0.024167    21.00000    -1.50000
H25B  2   0.418584  -0.037926   0.046465    21.00000    -1.50000
H25C  2   0.329418   0.027128   0.007757    21.00000    -1.50000
AFIX 0
PART 0
C26   1   0.359720  -0.142244   0.283969    11.00000     0.10609     0.05167 =
      0.10359     0.02491     0.01820    -0.00638
AFIX 137
H26A  2   0.357572  -0.217229   0.285349    11.00000    -1.50000
H26B  2   0.343407  -0.144068   0.236703    11.00000    -1.50000
H26C  2   0.290681  -0.109728   0.305275    11.00000    -1.50000
AFIX 0
C27   1   0.606769  -0.253682   0.114308    11.00000     0.10592     0.04626 =
      0.08941     0.01439     0.03582     0.04265
PART 1
C28   1   1.094555   0.715566   0.372674    51.00000     0.13176     0.08432 =
      0.10185     0.02067     0.00946     0.03369
AFIX 43
H28   2   1.108228   0.641593   0.362101    51.00000    -1.20000
AFIX 0
PART 0
C29   1   0.791939   0.087138   0.322837    11.00000     0.06154     0.10611 =
      0.11062     0.03033     0.00989     0.03425
AFIX 137
H29A  2   0.882383   0.125325   0.347026    11.00000    -1.50000
H29B  2   0.771575   0.097231   0.278435    11.00000    -1.50000
H29C  2   0.785559   0.008594   0.316616    11.00000    -1.50000
AFIX 0
PART 1
C30   1   0.195065  -0.176309   0.063435    21.00000     0.09656     0.04818 =
      0.08400    -0.00600    -0.00576     0.00534
AFIX 137
H30A  2   0.190581  -0.231326   0.019303    21.00000    -1.50000
H30B  2   0.111215  -0.188182   0.077499    21.00000    -1.50000
H30C  2   0.268735  -0.183115   0.097132    21.00000    -1.50000
AFIX 0
C31   1   0.862052   0.307093   0.195847    31.00000     0.06104     0.09953 =
      0.14133     0.02868     0.04380     0.00782
AFIX 137
H31A  2   0.928917   0.352451   0.183723    31.00000    -1.50000
H31B  2   0.839064   0.233508   0.161784    31.00000    -1.50000
H31C  2   0.898127   0.301525   0.240390    31.00000    -1.50000
AFIX 0
C32   1   0.101074   0.101748   0.244755    21.00000     0.06267     0.09591 =
      0.07736     0.01420     0.01497     0.00910
AFIX 137
H32A  2   0.028024   0.074564   0.262332    21.00000    -1.50000
H32B  2   0.086337   0.171010   0.237468    21.00000    -1.50000
H32C  2   0.185505   0.114053   0.277551    21.00000    -1.50000
AFIX 0
C33   1  -0.033673  -0.001101   0.127439    21.00000     0.05340     0.11411 =
      0.10061     0.00885     0.00481    -0.00321
AFIX 137
H33A  2  -0.105102  -0.016870   0.149543    21.00000    -1.50000
H33B  2  -0.039280  -0.063108   0.086212    21.00000    -1.50000
H33C  2  -0.043074   0.065420   0.115518    21.00000    -1.50000
AFIX 0
C34   1   1.055349   0.937009   0.405063    51.00000     0.13406     0.08538 =
      0.10532     0.00893    -0.00934     0.03607
AFIX 43
H34   2   1.041769   1.010999   0.415563    51.00000    -1.20000
AFIX 0
PART 0
C35   1   0.538734  -0.080987   0.393975    11.00000     0.17823     0.07284 =
      0.09979     0.05083     0.00924     0.02599
AFIX 137
H35A  2   0.526525  -0.158346   0.391203    11.00000    -1.50000
H35B  2   0.484033  -0.042035   0.423230    11.00000    -1.50000
H35C  2   0.632660  -0.047538   0.412982    11.00000    -1.50000
AFIX 0
PART 1
C36   1   0.766490   0.480455   0.247480    31.00000     0.11299     0.06662 =
      0.12359     0.01105     0.03832    -0.02069
AFIX 137
H36A  2   0.836859   0.522781   0.235600    31.00000    -1.50000
H36B  2   0.796091   0.481150   0.294125    31.00000    -1.50000
H36C  2   0.685941   0.513386   0.243752    31.00000    -1.50000
AFIX 0
C37   1   0.647500  -0.257887   0.048222    41.00000     0.11241     0.08582 =
      0.09961     0.00395     0.03400     0.02097
AFIX 137
H37A  2   0.672546  -0.329354   0.028141    41.00000    -1.50000
H37B  2   0.723505  -0.199359   0.057408    41.00000    -1.50000
H37C  2   0.572648  -0.247653   0.016608    41.00000    -1.50000
AFIX 0
C38   1   0.678166   0.368636   0.126466    31.00000     0.10003     0.08728 =
      0.09600     0.04017     0.02639    -0.00706
AFIX 137
H38A  2   0.746732   0.410574   0.113243    31.00000    -1.50000
H38B  2   0.600842   0.405802   0.128403    31.00000    -1.50000
H38C  2   0.651124   0.294614   0.093046    31.00000    -1.50000
AFIX 0
C39   1   1.143841   0.905371   0.451568    51.00000     0.13708     0.09102 =
      0.10155     0.01521    -0.00598     0.03520
AFIX 43
H39   2   1.190724   0.957644   0.493735    51.00000    -1.20000
AFIX 0
C40   1   1.007009   0.748096   0.326982    51.00000     0.13177     0.08892 =
      0.10969     0.00928     0.00162     0.03836
AFIX 43
H40   2   0.960408   0.695663   0.284816    51.00000    -1.20000
AFIX 0
C41   1   0.483843  -0.345573   0.099491    41.00000     0.13683     0.04794 =
      0.13773     0.01545     0.03980     0.01998
AFIX 137
H41A  2   0.508371  -0.417731   0.080802    41.00000    -1.50000
H41B  2   0.410812  -0.335797   0.066678    41.00000    -1.50000
H41C  2   0.455265  -0.340811   0.141702    41.00000    -1.50000
AFIX 0
C42   1   0.987624   0.857973   0.343132    51.00000     0.13690     0.08951 =
      0.10623     0.00718    -0.00538     0.03679
AFIX 43
H42   2   0.927905   0.878896   0.311690    51.00000    -1.20000
AFIX 0
C43   1   1.161417   0.795154   0.434415    51.00000     0.13607     0.09109 =
      0.10264     0.02207     0.00428     0.03424
AFIX 43
H43   2   1.220764   0.773853   0.465811    51.00000    -1.20000
AFIX 0
C44   1   0.716227  -0.265328   0.169220    41.00000     0.13945     0.08354 =
      0.11093     0.02644     0.01530     0.05474
AFIX 137
H44A  2   0.743931  -0.336760   0.152722    41.00000    -1.50000
H44B  2   0.682161  -0.260182   0.210049    41.00000    -1.50000
H44C  2   0.792705  -0.206502   0.180065    41.00000    -1.50000
AFIX 0
PART 2
C22B  1   0.263199  -0.043316   0.057280   -21.00000     0.06713     0.04435 =
      0.05371    -0.00016     0.00174     0.00689
AFIX 13
H22B  2   0.211391  -0.016495   0.022778   -21.00000    -1.20000
AFIX 0
C25B  1   0.391255  -0.023556   0.029292   -21.00000     0.07355     0.05241 =
      0.04947    -0.00428     0.00243     0.00747
AFIX 137
PART 0
H0    2   0.385603  -0.082842  -0.013266    10.12264    -1.50000
H1    2   0.470507  -0.022536   0.062647    10.12264    -1.50000
H2    2   0.397303   0.047001   0.021087    10.12264    -1.50000
AFIX 0
PART 2
C30B  1   0.217783  -0.165546   0.052623   -21.00000     0.07245     0.04929 =
      0.06039    -0.00562     0.00426     0.00488
AFIX 137
PART 0
H3    2   0.235356  -0.215494   0.011296    10.12264    -1.50000
H4    2   0.122280  -0.178256   0.051346    10.12264    -1.50000
H6    2   0.267403  -0.179083   0.092324    10.12264    -1.50000
AFIX 0
PART 2
C16B  1   0.085754   0.000413   0.153109   -21.00000     0.05260     0.06672 =
      0.06734     0.01214     0.00491     0.00193
AFIX 13
H16B  2   0.048945   0.068329   0.152425   -21.00000    -1.20000
AFIX 0
C33B  1  -0.035291  -0.078957   0.097266   -21.00000     0.05840     0.09059 =
      0.08403     0.01377     0.00988     0.00110
AFIX 137
PART 0
H7    2  -0.108017  -0.094506   0.118645    10.12264    -1.50000
HA    2  -0.007060  -0.147805   0.074645    10.12264    -1.50000
HB    2  -0.066041  -0.043898   0.063795    10.12264    -1.50000
AFIX 0
PART 2
C32B  1   0.097739  -0.007795   0.226178   -21.00000     0.04938     0.08407 =
      0.07381     0.01326     0.01106     0.00371
AFIX 137
PART 0
HC    2   0.009585  -0.034325   0.231603    10.12264    -1.50000
HD    2   0.133434   0.064902   0.260060    10.12264    -1.50000
HE    2   0.157674  -0.059081   0.232449    10.12264    -1.50000
AFIX 0
PART 2
C36B  1   0.819161   0.441576   0.268791   -31.00000     0.08744     0.06541 =
      0.12044     0.01149     0.03524    -0.01618
AFIX 137
PART 0
HF    2   0.892726   0.487634   0.261586    10.21610    -1.50000
HG    2   0.854987   0.399365   0.297000    10.21610    -1.50000
HH    2   0.761743   0.488307   0.291649    10.21610    -1.50000
AFIX 0
PART 2
C38B  1   0.673007   0.459354   0.187395   -31.00000     0.09563     0.07811 =
      0.11295     0.02943     0.03210    -0.00627
AFIX 137
PART 0
HI    2   0.737250   0.506706   0.175081    10.21610    -1.50000
HJ    2   0.649754   0.501632   0.229324    10.21610    -1.50000
HK    2   0.592573   0.431843   0.150841    10.21610    -1.50000
AFIX 0
PART 2
C31B  1   0.832001   0.288164   0.165573   -31.00000     0.04729     0.07315 =
      0.10310     0.00895     0.04686     0.01019
AFIX 137
PART 0
HL    2   0.900251   0.334018   0.154610    10.21610    -1.50000
HM    2   0.781688   0.230520   0.123972    10.21610    -1.50000
HN    2   0.874719   0.254372   0.197412    10.21610    -1.50000
AFIX 0
PART 2
C44B  1   0.752500  -0.257720   0.143474   -41.00000     0.12065     0.07040 =
      0.10106     0.02034     0.02834     0.05117
AFIX 137
PART 0
HO    2   0.771266  -0.331518   0.123094    10.19353    -1.50000
HP    2   0.767137  -0.240213   0.192744    10.19353    -1.50000
HQ    2   0.811854  -0.203999   0.133149    10.19353    -1.50000
AFIX 0
PART 2
C37B  1   0.580211  -0.288053   0.036794   -41.00000     0.11050     0.06826 =
      0.09246    -0.00096     0.03839     0.03174
AFIX 137
PART 0
HR    2   0.604893  -0.360316   0.018673    10.19353    -1.50000
HS    2   0.633297  -0.233963   0.023765    10.19353    -1.50000
HT    2   0.485461  -0.291858   0.018377    10.19353    -1.50000
AFIX 0
PART 2
C41B  1   0.522969  -0.326055   0.142947   -41.00000     0.13545     0.05172 =
      0.11334     0.02604     0.02826     0.03691
AFIX 137
PART 0
HU    2   0.539873  -0.401524   0.127149    10.19353    -1.50000
HV    2   0.428300  -0.325377   0.127322    10.19353    -1.50000
HW    2   0.547334  -0.297383   0.192619    10.19353    -1.50000
AFIX 0
PART 2
C28B  1   1.178759   0.746228   0.406591   -51.00000     0.13438     0.08479 =
      0.09955     0.01894     0.00709     0.03197
AFIX 43
H28B  2   1.238252   0.697915   0.413416   -51.00000    -1.20000
AFIX 0
C43B  1   1.207725   0.859789   0.445596   -51.00000     0.13697     0.08870 =
      0.10066     0.01574     0.00387     0.03221
AFIX 43
H43B  2   1.287393   0.890290   0.479571   -51.00000    -1.20000
AFIX 0
C39B  1   1.113341   0.925777   0.431907   -51.00000     0.13708     0.08959 =
      0.10492     0.01368    -0.00204     0.03437
AFIX 43
H39B  2   1.129942   1.001966   0.457093   -51.00000    -1.20000
AFIX 0
C34B  1   0.994642   0.879869   0.381250   -51.00000     0.13665     0.09030 =
      0.10611     0.01195    -0.00243     0.03628
AFIX 43
H34B  2   0.934675   0.927677   0.374097   -51.00000    -1.20000
AFIX 0
C42B  1   0.958997   0.767970   0.340557   -51.00000     0.13572     0.09056 =
      0.10669     0.01124     0.00249     0.03479
AFIX 43
H42B  2   0.879363   0.737187   0.306592   -51.00000    -1.20000
AFIX 0
C40B  1   1.058064   0.708318   0.357365   -51.00000     0.13278     0.08560 =
      0.10210     0.01827     0.00462     0.03452
AFIX 43
H40B  2   1.041086   0.632179   0.332033   -51.00000    -1.20000
AFIX 0
PART 0
HKLF 4
END
