TITL CrystalPilot n0067 in P -1
REM CrystalPilot node n0067 tool=model_disorder
REM R1 = 0.0718 wR2 = 0.2213 GooF = 1.084
CELL 0.71073 10.15540 12.70750 20.80080 107.6910 100.3150 96.2330
ZERR 2 0.00170 0.00210 0.00440 0.0030 0.0030 0.0020
LATT 1
SFAC C N P Ni La
UNIT 88.0 16.0 4.0 2.0 2.0

DFIX 1.3900 0.010 C28 C40
DFIX 1.3900 0.010 C40 C42
DFIX 1.3900 0.010 C42 C34
DFIX 1.3900 0.010 C34 C39
DFIX 1.3900 0.010 C39 C43
DFIX 1.3900 0.010 C43 C28
FLAT 0.01 C28 C40 C42 C34 C39 C43
SADI 0.020 C11 C36 C11 C38 C11 C31 C11 C36B C11 C38B C11 C31B
SIMU 0.010 0.020 C11 C36 C38 C31 C36B C38B C31B

WGHT 0.082660 10.758620
FVAR 0.18931 0.73841 0.73009
LA1   5   0.429108   0.291526   0.269802    11.00000     0.04344     0.03300 =
      0.04294     0.00574     0.00736     0.00972
NI1   4   0.466881   0.070249   0.207504    11.00000     0.04997     0.03168 =
      0.04629     0.00541     0.01013     0.01115
P1    3   0.260787   0.052327   0.145787    11.00000     0.05166     0.03256 =
      0.04677     0.00294     0.00493     0.00674
P2    3   0.511702   0.071707   0.314967    11.00000     0.05999     0.03569 =
      0.04872     0.00991     0.00977     0.01494
N1    2   0.251722   0.280736   0.169913    11.00000     0.05666     0.03262 =
      0.04632     0.00716     0.00311     0.01118
N2    2   0.383356   0.246802   0.375391    11.00000     0.06453     0.04090 =
      0.04778     0.01016     0.01652     0.01645
N3    2   0.627428   0.295977   0.216840    11.00000     0.04612     0.04267 =
      0.05464     0.00918     0.00919     0.00308
C1    1   0.294636   0.493970   0.270051    11.00000     0.05520     0.03436 =
      0.04888     0.00739     0.00512     0.01241
N4    2   0.117283   0.348705   0.082519    11.00000     0.08715     0.06174 =
      0.05272     0.01612     0.00429     0.01272
N5    2   0.245295   0.449265   0.315822    11.00000     0.07027     0.05304 =
      0.05464     0.00698     0.00626     0.02162
N6    2   0.328211   0.457979   0.380159    11.00000     0.06815     0.04515 =
      0.05288     0.00347     0.00759     0.01747
C2    1   0.194491   0.363023   0.149763    11.00000     0.05406     0.03722 =
      0.04653     0.01276     0.00630     0.00971
C3    1   0.570218  -0.143754   0.142508    11.00000     0.08308     0.03373 =
      0.05594     0.00578     0.02082     0.02743
N7    2   0.211914   0.472659   0.199385    11.00000     0.06293     0.04732 =
      0.05744     0.01170     0.00912     0.00859
C4    1   0.593740   0.187068   0.192769    11.00000     0.05220     0.04714 =
      0.05786     0.01366     0.01359     0.01229
C5    1   0.429518   0.551190   0.288807    11.00000     0.06332     0.03816 =
      0.06355     0.01232     0.00455     0.00548
C6    1   0.274553   0.402273   0.425757    11.00000     0.06237     0.04983 =
      0.04166     0.00547     0.00647     0.01869
C7    1   0.218422   0.170692   0.115399    11.00000     0.07577     0.03861 =
      0.05028     0.00439    -0.00478     0.01415
C8    1   0.153200   0.558496   0.183184    11.00000     0.08010     0.04293 =
      0.06351     0.01782     0.00635     0.01557
N8    2   0.530168  -0.061053   0.166022    11.00000     0.07081     0.06160 =
      0.06642     0.01923     0.01336     0.01111
C9    1   0.194535   0.452556   0.469552    11.00000     0.07016     0.07667 =
      0.04717     0.00460     0.01611     0.02846
C10   1   0.460658   0.514745   0.397177    11.00000     0.06550     0.04378 =
      0.05185     0.00182    -0.00305     0.00757
C11   1   0.735368   0.360839   0.198431    11.00000     0.06324     0.05473 =
      0.08491     0.02214     0.02946     0.00532
C12   1   0.059565   0.434858   0.067355    11.00000     0.09958     0.05602 =
      0.05204     0.02151    -0.00193     0.01327
C13   1   0.309706   0.294959   0.421754    11.00000     0.06290     0.04530 =
      0.04470     0.00758     0.01235     0.01161
C14   1   0.174860   0.296784   0.511968    11.00000     0.08090     0.07976 =
      0.06013     0.01038     0.02463     0.01085
C15   1   0.689721   0.134380   0.365017    11.00000     0.06823     0.05722 =
      0.06160     0.02072    -0.00334     0.01123
C16   1   0.105660   0.016231   0.177173    11.00000     0.04631     0.08552 =
      0.08999     0.02957     0.00932    -0.00219
C17   1   0.513739   0.561489   0.353084    11.00000     0.06528     0.04622 =
      0.06412     0.00850    -0.00226    -0.00310
C18   1   0.716863   0.265111   0.386939    11.00000     0.07822     0.06167 =
      0.07454     0.01412     0.00471     0.00208
C19   1   0.415528   0.139089   0.381203    11.00000     0.08104     0.04698 =
      0.04922     0.01506     0.01973     0.02291
C20   1   0.077110   0.541125   0.116439    11.00000     0.10954     0.05225 =
      0.06005     0.02107    -0.00126     0.02585
C21   1   0.258268   0.244185   0.468492    11.00000     0.08169     0.06537 =
      0.05033     0.01518     0.02273     0.01269
C22   1   0.221934  -0.055677   0.056832    11.00000     0.08642     0.04824 =
      0.05612    -0.00423    -0.00654     0.01315
C23   1   0.143158   0.398944   0.513054    11.00000     0.07402     0.09140 =
      0.06219     0.01559     0.02636     0.03172
C24   1   0.496240  -0.073451   0.321713    11.00000     0.10609     0.04115 =
      0.07886     0.02438     0.01661     0.01975
C25   1   0.336652  -0.039897   0.018900    11.00000     0.11402     0.07901 =
      0.05989     0.00638     0.02532     0.02882
C26   1   0.356738  -0.142095   0.283298    11.00000     0.10661     0.05347 =
      0.09973     0.02321     0.01307    -0.00818
C27   1   0.607797  -0.252699   0.114111    11.00000     0.09555     0.04499 =
      0.08767     0.00983     0.03024     0.03846
C28   1   1.091568   0.714329   0.370936    11.00000     0.15490     0.08581 =
      0.11506     0.03670     0.04837     0.03986
C29   1   0.793019   0.087629   0.322045    11.00000     0.06252     0.11896 =
      0.10785     0.03405     0.01230     0.04118
C30   1   0.195400  -0.176185   0.062779    11.00000     0.11681     0.04125 =
      0.09585    -0.00700    -0.01521     0.00716
PART 1
C31   1   0.866838   0.307786   0.198343    21.00000     0.09569
PART 0
C32   1   0.101711   0.099737   0.243951    11.00000     0.07933     0.13326 =
      0.08033     0.01150     0.02088     0.01976
C33   1  -0.036640  -0.001378   0.125814    11.00000     0.05269     0.15751 =
      0.11635     0.02084     0.00300    -0.00295
C34   1   1.057262   0.937752   0.406525    11.00000     0.16078     0.08927 =
      0.14796     0.00347    -0.00450     0.03246
C35   1   0.540806  -0.080681   0.395572    11.00000     0.17588     0.07544 =
      0.09510     0.05088     0.01029     0.02449
PART 1
C36   1   0.763921   0.483967   0.247368    21.00000     0.09818
C37   1   0.639763  -0.256143   0.046215    31.00000     0.12977
C38   1   0.676269   0.367952   0.125057    21.00000     0.08546
PART 0
C39   1   1.150779   0.904077   0.448814    11.00000     0.18812     0.12259 =
      0.10146     0.02251    -0.02485    -0.00454
C40   1   0.998442   0.749078   0.329180    11.00000     0.13119     0.09255 =
      0.17319     0.01293    -0.00499     0.01796
PART 1
C41   1   0.481372  -0.346202   0.103133    31.00000     0.15120
PART 0
C42   1   0.981666   0.859286   0.346827    11.00000     0.18469     0.11492 =
      0.16115     0.00901    -0.01861     0.05654
C43   1   1.168454   0.792813   0.431291    11.00000     0.16938     0.25961 =
      0.15693     0.14311     0.04020     0.08480
PART 1
C44   1   0.725790  -0.262810   0.166190    31.00000     0.14902
PART 2
C36B  1   0.810081   0.456526   0.267771   -21.00000     0.07782
C38B  1   0.672690   0.461552   0.186331   -21.00000     0.09883
C31B  1   0.840440   0.293370   0.167529   -21.00000     0.05473
C44B  1   0.753000  -0.255000   0.143000   -31.00000     0.14902
C37B  1   0.571400  -0.286600   0.036400   -31.00000     0.12977
C41B  1   0.511000  -0.331000   0.137000   -31.00000     0.15120
PART 0
HKLF 4
END
