TITL CrystalPilot n0107 in P -1
REM CrystalPilot node n0107 tool=rename_atoms
CELL 0.71073 10.15540 12.70750 20.80080 107.6910 100.3150 96.2330
ZERR 2 0.00170 0.00210 0.00440 0.0030 0.0030 0.0020
LATT 1
SFAC C H N P Ni La
UNIT 92.2 35.3 8.0 4.0 2.0 2.0

DFIX 1.3900 0.010 C28 C40
DFIX 1.3900 0.010 C40 C42
DFIX 1.3900 0.010 C42 C34
DFIX 1.3900 0.010 C34 C39
DFIX 1.3900 0.010 C39 C43
DFIX 1.3900 0.010 C43 C28
DFIX 1.3900 0.010 C28B C40B
DFIX 1.3900 0.010 C40B C42B
DFIX 1.3900 0.010 C42B C34B
DFIX 1.3900 0.010 C34B C39B
DFIX 1.3900 0.010 C39B C43B
DFIX 1.3900 0.010 C43B C28B
FLAT 0.01 C28 C40 C42 C34 C39 C43
FLAT 0.01 C28B C40B C42B C34B C39B C43B
SADI 0.020 P1 C22 P1 C16 P1 C22B P1 C16B
SADI 0.020 C22 C25 C22 C30 C16 C33 C16 C32 C22B C25B C22B C30B C16B C33B =
 C16B C32B
SIMU 0.010 0.020 P1 C22 C25 C30 C16 C33 C32 C22B C25B C30B C16B C33B C32B
SADI 0.020 C11 C36 C11 C38 C11 C31 C11 C36B C11 C38B C11 C31B
SIMU 0.010 0.020 C11 C36 C38 C31 C36B C38B C31B
SADI 0.020 C27 C44 C27 C37 C27 C41 C27 C44B C27 C37B C27 C41B
SIMU 0.010 0.020 C27 C44 C37 C41 C44B C37B C41B
SIMU 0.010 0.020 C28 C40 C42 C34 C39 C43 C28B C40B C42B C34B C39B C43B

WGHT 0.092580 12.699160
FVAR 0.19006 0.78356 0.83298 0.73009 0.71848
LA1   6   0.429123   0.291518   0.269801    11.00000     0.04318     0.03273 =
      0.04265     0.00565     0.00733     0.00967
NI1   5   0.466909   0.070236   0.207487    11.00000     0.04986     0.03174 =
      0.04633     0.00544     0.01015     0.01107
P1    4   0.260799   0.052405   0.145812    11.00000     0.05206     0.03303 =
      0.04697     0.00259     0.00470     0.00647
P2    4   0.511643   0.071644   0.314984    11.00000     0.06022     0.03559 =
      0.04907     0.00989     0.00957     0.01504
N1    3   0.251721   0.281048   0.169977    11.00000     0.05652     0.03259 =
      0.04704     0.00706     0.00300     0.01084
N2    3   0.383603   0.247125   0.375651    11.00000     0.06458     0.04115 =
      0.04731     0.00980     0.01583     0.01637
N3    3   0.627277   0.295895   0.216939    11.00000     0.04597     0.04375 =
      0.05530     0.01102     0.00936     0.00292
C1    1   0.295264   0.494002   0.270085    11.00000     0.05470     0.03486 =
      0.04870     0.00589     0.00350     0.01281
N4    1   0.116773   0.349145   0.082937    11.00000     0.07613     0.04665 =
      0.04102     0.00922     0.00370     0.01064
AFIX 43
H2    2   0.103775   0.280081   0.048208    11.00000    -1.20000
AFIX 0
N5    1   0.245949   0.449697   0.315966    11.00000     0.05425     0.04226 =
      0.04612     0.00510     0.00468     0.01572
N6    1   0.328281   0.458355   0.380141    11.00000     0.05757     0.03542 =
      0.04243     0.00180     0.00678     0.01428
C2    1   0.194910   0.363059   0.149997    11.00000     0.05466     0.03823 =
      0.04512     0.01290     0.00589     0.00997
C3    1   0.570084  -0.144244   0.142326    11.00000     0.08448     0.03460 =
      0.05592     0.00662     0.02149     0.02620
N7    1   0.212155   0.472448   0.199022    11.00000     0.05143     0.03876 =
      0.04616     0.00933     0.00697     0.00580
C4    1   0.593773   0.187681   0.193016    11.00000     0.05122     0.04625 =
      0.05735     0.01242     0.01264     0.01274
C5    1   0.429270   0.550484   0.288818    11.00000     0.06313     0.03762 =
      0.06476     0.01400     0.00695     0.00459
C6    1   0.273919   0.401651   0.425769    11.00000     0.06291     0.05056 =
      0.04111     0.00455     0.00648     0.01897
C7    1   0.219034   0.170865   0.115279    11.00000     0.07481     0.03817 =
      0.05026     0.00438    -0.00337     0.01359
C8    1   0.153929   0.558133   0.182937    11.00000     0.08104     0.04142 =
      0.06057     0.01417     0.00383     0.01576
AFIX 43
H12   2   0.165484   0.627850   0.216890    11.00000    -1.20000
AFIX 0
N8    3   0.529608  -0.061200   0.166059    11.00000     0.07289     0.05959 =
      0.06559     0.01654     0.01460     0.01237
C9    1   0.193617   0.450811   0.469627    11.00000     0.07237     0.07091 =
      0.05059     0.00619     0.01765     0.02968
AFIX 43
H13   2   0.171915   0.520245   0.470102    11.00000    -1.20000
AFIX 0
C10   1   0.460947   0.514886   0.396695    11.00000     0.06861     0.04508 =
      0.04924     0.00187    -0.00415     0.00885
C11   1   0.736093   0.360742   0.198666    11.00000     0.06597     0.05840 =
      0.10104     0.01838     0.03429    -0.00404
C12   1   0.059691   0.435312   0.067969    10.78356     0.10006     0.06201 =
      0.05057     0.02330    -0.00609     0.01148
AFIX 43
PART 1
H16   2   0.007126   0.421562   0.023839    21.00000    -1.20000
AFIX 0
PART 0
C13   1   0.309391   0.294761   0.421939    11.00000     0.06347     0.04470 =
      0.04441     0.00733     0.01259     0.01144
C14   1   0.176330   0.296406   0.511354    11.00000     0.08380     0.08284 =
      0.05711     0.01351     0.02535     0.01360
AFIX 43
H18   2   0.143148   0.260357   0.539457    11.00000    -1.20000
AFIX 0
C15   1   0.689945   0.134925   0.365595    11.00000     0.06700     0.05753 =
      0.06260     0.02021    -0.00154     0.01163
PART 1
C16   1   0.104077   0.020286   0.177922    21.00000     0.05122     0.07070 =
      0.08142     0.01904     0.00987     0.00310
PART 0
C17   1   0.513307   0.560869   0.353045    11.00000     0.06552     0.04486 =
      0.06514     0.00726    -0.00228    -0.00453
C18   1   0.716319   0.264333   0.386517    10.78356     0.07309     0.06543 =
      0.07340     0.01480     0.00465     0.00129
AFIX 137
PART 1
H22A  2   0.808363   0.293226   0.412221    21.00000    -1.50000
H22B  2   0.655137   0.294470   0.414682    21.00000    -1.50000
H22C  2   0.701825   0.285611   0.345632    21.00000    -1.50000
AFIX 0
PART 0
C19   1   0.415912   0.138885   0.381278    11.00000     0.08112     0.04704 =
      0.04957     0.01578     0.02105     0.02291
C20   1   0.077873   0.540447   0.115953    11.00000     0.11065     0.05360 =
      0.06158     0.02338    -0.00084     0.02821
AFIX 43
H24   2   0.041090   0.598026   0.104511    11.00000    -1.20000
AFIX 0
C21   1   0.257433   0.245646   0.468256    10.78356     0.08450     0.06172 =
      0.05276     0.01701     0.02343     0.01618
AFIX 43
PART 1
H25   2   0.279162   0.176883   0.469350    21.00000    -1.20000
AFIX 0
C22   1   0.216753  -0.059312   0.057572    21.00000     0.07198     0.04526 =
      0.05628    -0.00066     0.00238     0.00408
PART 0
C23   1   0.144519   0.399672   0.512897    11.00000     0.07791     0.09289 =
      0.06301     0.01627     0.03136     0.03409
AFIX 43
H27   2   0.091354   0.434341   0.542262    11.00000    -1.20000
AFIX 0
C24   1   0.497449  -0.073238   0.321723    10.71849     0.10504     0.04222 =
      0.07586     0.02264     0.01704     0.02120
PART 1
C25   1   0.328607  -0.043568   0.017218    21.00000     0.07801     0.05740 =
      0.05751     0.00196     0.00859     0.00782
PART 0
C26   1   0.359360  -0.142267   0.283450    10.78356     0.10492     0.05292 =
      0.10352     0.02595     0.01407    -0.00713
AFIX 137
PART 1
H30A  2   0.354581  -0.215698   0.287628    21.00000    -1.50000
H30B  2   0.345310  -0.148594   0.235445    21.00000    -1.50000
H30C  2   0.290366  -0.106411   0.302935    21.00000    -1.50000
AFIX 0
PART 0
C27   1   0.607263  -0.253330   0.114191    10.83298     0.10422     0.04976 =
      0.09208     0.00846     0.03239     0.03700
PART 1
C28   1   1.092045   0.715727   0.372803    51.00000     0.13789     0.08358 =
      0.10027     0.01323     0.00668     0.03190
PART 0
C29   1   0.792130   0.087520   0.322693    10.78356     0.06217     0.11196 =
      0.11299     0.02992     0.00708     0.03654
AFIX 137
PART 1
H33A  2   0.883061   0.120267   0.348911    21.00000    -1.50000
H33B  2   0.777170   0.105188   0.280541    21.00000    -1.50000
H33C  2   0.779789   0.007587   0.311912    21.00000    -1.50000
AFIX 0
C30   1   0.193833  -0.177590   0.065331    21.00000     0.08921     0.04620 =
      0.06999     0.00206     0.00768     0.00605
C31   1   0.858435   0.302960   0.191131    31.00000     0.06590     0.08707 =
      0.12551     0.03450     0.04318     0.00773
C32   1   0.101782   0.102771   0.244843    21.00000     0.06027     0.07908 =
      0.08016     0.01954     0.01590     0.00930
C33   1  -0.035553   0.004520   0.127240    21.00000     0.05690     0.09018 =
      0.09930     0.02571     0.01195     0.00740
C34   1   1.057997   0.938523   0.405128    51.00000     0.13641     0.08201 =
      0.10379     0.00928    -0.00132     0.03148
PART 0
C35   1   0.540474  -0.081067   0.394111    10.71849     0.17255     0.07654 =
      0.10164     0.05352     0.00865     0.02524
AFIX 137
PART 1
H39A  2   0.529004  -0.158440   0.391313    51.00000    -1.50000
H39B  2   0.485269  -0.042639   0.423259    51.00000    -1.50000
H39C  2   0.634191  -0.047043   0.413259    51.00000    -1.50000
AFIX 0
C36   1   0.770117   0.478304   0.248800    31.00000     0.09386     0.07228 =
      0.12239     0.02285     0.04340    -0.00342
C37   1   0.648953  -0.255109   0.047328    41.00000     0.10543     0.08004 =
      0.09561     0.01466     0.03649     0.03310
C38   1   0.679232   0.370236   0.126239    31.00000     0.08856     0.08376 =
      0.10930     0.03338     0.03748     0.00082
AFIX 13
H42   2   0.632063   0.364686   0.079595    51.00000    -1.20000
AFIX 0
C39   1   1.147519   0.905042   0.450796    51.00000     0.14131     0.08917 =
      0.10316     0.01493     0.00242     0.03417
C40   1   1.005473   0.747526   0.325572    51.00000     0.13785     0.08639 =
      0.10664     0.01253     0.00490     0.03348
C41   1   0.480842  -0.348028   0.096355    41.00000     0.12344     0.05258 =
      0.11110     0.01276     0.03910     0.02628
C42   1   0.983928   0.857632   0.344296    51.00000     0.13957     0.08533 =
      0.10462     0.01002     0.00193     0.03366
C43   1   1.164657   0.793847   0.434527    51.00000     0.14248     0.09076 =
      0.10368     0.01832     0.00747     0.03506
C44   1   0.715017  -0.265222   0.171540    41.00000     0.11941     0.08125 =
      0.10333     0.02940     0.03338     0.04935
PART 2
C22B  1   0.248299  -0.043630   0.054057   -21.00000     0.07385     0.04551 =
      0.05606     0.00041     0.00524     0.00488
C25B  1   0.375819  -0.020187   0.026441   -21.00000     0.07495     0.05018 =
      0.05571    -0.00070     0.00602     0.00382
C30B  1   0.213459  -0.167625   0.048097   -21.00000     0.07725     0.04618 =
      0.05792     0.00017     0.00592     0.00426
C16B  1   0.107047  -0.006510   0.169270   -21.00000     0.05566     0.07171 =
      0.08147     0.01853     0.01140     0.00600
C33B  1  -0.027585  -0.052471   0.114573   -21.00000     0.05696     0.07927 =
      0.09254     0.02293     0.01234     0.00671
C32B  1   0.096658   0.022596   0.244412   -21.00000     0.06001     0.08125 =
      0.08501     0.02318     0.01388     0.00771
C36B  1   0.839019   0.423412   0.267585   -31.00000     0.07568     0.07458 =
      0.11845     0.02676     0.03979    -0.00136
C38B  1   0.668643   0.453475   0.181853   -31.00000     0.08345     0.07241 =
      0.11242     0.02661     0.03919    -0.00136
AFIX 13
PART 0
H56   2   0.608938   0.506514   0.174800    10.16876    -1.20000
AFIX 0
PART 2
C31B  1   0.804843   0.292258   0.145317   -31.00000     0.07458     0.07898 =
      0.11248     0.02983     0.04025     0.00221
C44B  1   0.753398  -0.254469   0.150512   -41.00000     0.10944     0.07091 =
      0.09725     0.02269     0.03295     0.04473
C37B  1   0.577391  -0.281210   0.035556   -41.00000     0.10809     0.07199 =
      0.09558     0.01304     0.03666     0.03574
C41B  1   0.507482  -0.330046   0.135621   -41.00000     0.11883     0.04884 =
      0.10207     0.01182     0.03623     0.03013
C28B  1   1.180369   0.743365   0.406254   -51.00000     0.14034     0.08313 =
      0.09910     0.01230     0.00636     0.03196
C43B  1   1.204640   0.855662   0.447505   -51.00000     0.14269     0.08634 =
      0.10113     0.01362     0.00599     0.03348
C39B  1   1.116768   0.928933   0.437814   -51.00000     0.14180     0.08773 =
      0.10513     0.01457     0.00432     0.03402
C34B  1   1.002649   0.885052   0.383769   -51.00000     0.14060     0.08828 =
      0.10591     0.01408     0.00374     0.03453
C42B  1   0.969869   0.770757   0.347233   -51.00000     0.13967     0.08794 =
      0.10405     0.01316     0.00503     0.03323
C40B  1   1.063246   0.700964   0.354416   -51.00000     0.13846     0.08559 =
      0.10155     0.01356     0.00521     0.03208
PART 0
HKLF 4
END
