TITL CrystalPilot n0058 in C 2 2 21
REM CrystalPilot node n0058 tool=refine
REM R1 = 0.0515 wR2 = 0.1544 GooF = 0.954
CELL 0.68914 15.79000 32.31000 11.86000 90.0000 90.0000 90.0000
ZERR 8 0 0 0 0 0 0
LATT -7
SYMM X,-Y,-Z
SYMM -X,Y,-Z+1/2
SYMM -X,-Y,Z+1/2
SFAC C H O Cu
UNIT 218.8 100.0 32.0 8.0

WGHT 0.123330 3.600130
FVAR 0.27796
CU1   4   0.068921   0.019837   0.363630    11.00000     0.03953     0.02015 =
      0.08254     0.00109    -0.01845    -0.00180
C1    1   0.071274   0.294545   0.210474    11.00000     0.03089     0.01849 =
      0.04915    -0.00444     0.01043    -0.00147
C2    1   0.000000   0.272476   0.250000    10.50000     0.03478     0.01366 =
      0.04897     0.00000     0.00688    -0.00000
C3    1   0.000000   0.405914   0.250000    10.50000     0.08259     0.01088 =
      0.04483     0.00000     0.00725    -0.00000
O1    3   0.158849   0.046615   0.448966    11.00000     0.05050     0.04997 =
      0.07637     0.00408    -0.02757    -0.02267
C4    1   0.000000   0.360065   0.250000    10.50000     0.04546     0.01492 =
      0.04781     0.00000     0.01206    -0.00000
C5    1   0.071401   0.337791   0.211569    11.00000     0.03648     0.02247 =
      0.04570    -0.00362     0.00654    -0.00457
O2    3   0.032007   0.076131   0.335016    11.00000     0.08881     0.02095 =
      0.09291     0.00341    -0.03375     0.00400
C6    1   0.000000   0.140434   0.250000    10.50000     0.05921     0.01357 =
      0.05904     0.00000    -0.01692    -0.00000
O3    3   0.000000  -0.002246   0.250000    10.50000     0.10896     0.02364 =
      0.15834     0.00000    -0.08376    -0.00000
C7    1   0.217764   0.218453   0.063001    11.00000     0.12957     0.11618 =
      0.04065     0.00270     0.01482     0.08878
AFIX 43
H7    2   0.216884   0.200414   0.001908    11.00000    -1.20000
AFIX 0
O4    3   0.122749   0.033961   0.627812    11.00000     0.05446     0.03465 =
      0.08931    -0.01298     0.03139    -0.02211
C8    1   0.147958   0.271230   0.175413    11.00000     0.04236     0.02886 =
      0.04578    -0.00624     0.01304     0.00214
C9    1   0.000000   0.226541   0.250000    10.50000     0.03918     0.01862 =
      0.05123     0.00000     0.00037    -0.00000
C10   1   0.229183   0.083080   0.592155    11.00000     0.03874     0.03175 =
      0.05805     0.00103     0.00025    -0.01019
C11   1   0.145148   0.362618   0.168537    11.00000     0.04344     0.03488 =
      0.04945    -0.00331     0.00329    -0.01866
C12   1   0.168424   0.362374   0.054742    11.00000     0.04251     0.04041 =
      0.04745     0.00203     0.00510    -0.01685
AFIX 43
H12   2   0.142943   0.344000   0.004817    11.00000    -1.20000
AFIX 0
C13   1   0.120836   0.332574   0.724773    11.00000     0.12455     0.14667 =
      0.05527    -0.01131    -0.01084     0.08960
C14   1   0.146360   0.243304   0.085776    11.00000     0.09091     0.04630 =
      0.04136    -0.00377     0.01184     0.02662
AFIX 43
H14   2   0.098212   0.241070   0.041025    11.00000    -1.20000
AFIX 0
C15   1   0.207128   0.250409   0.718765    11.00000     0.05047     0.12084 =
      0.06514    -0.00834    -0.00735     0.03944
AFIX 43
H15   2   0.158821   0.247990   0.763141    11.00000    -1.20000
AFIX 0
C16   1   0.229650   0.389688   0.017101    11.00000     0.04469     0.03523 =
      0.05894    -0.00245     0.01410    -0.01172
AFIX 43
H16   2   0.243913   0.390105  -0.058972    11.00000    -1.20000
AFIX 0
C17   1   0.054362   0.161747   0.321416    11.00000     0.05833     0.02550 =
      0.06972    -0.00085    -0.02317     0.00133
AFIX 43
H17   2   0.089992   0.147407   0.370125    11.00000    -1.20000
AFIX 0
C18   1   0.054910   0.204556   0.319273    11.00000     0.04583     0.01994 =
      0.06242    -0.00044    -0.01614     0.00149
AFIX 43
H18   2   0.092710   0.218883   0.365021    11.00000    -1.20000
AFIX 0
C19   1   0.222257   0.274475   0.237627    11.00000     0.03644     0.06585 =
      0.07979    -0.00744     0.00414     0.01429
AFIX 43
H19   2   0.224948   0.294212   0.294591    11.00000    -1.20000
AFIX 0
C20   1   0.002284   0.427387   0.150186    11.00000     0.17526     0.02031 =
      0.04240     0.00279     0.01378     0.00349
AFIX 43
H20   2  -0.000035   0.413173   0.082069    11.00000    -1.20000
AFIX 0
O5    3   0.030203   0.000000   0.000000    10.50000     0.04096     0.11690 =
      0.14164    -0.02627    -0.00000    -0.00000
C21   1   0.211403   0.279422   0.629990    11.00000     0.10496     0.14367 =
      0.05008    -0.01169    -0.02317     0.09295
C22   1   0.188096   0.388264   0.244581    11.00000     0.07721     0.05174 =
      0.04663    -0.00337    -0.00436    -0.03142
AFIX 43
H22   2   0.175393   0.386927   0.321064    11.00000    -1.20000
AFIX 0
C23   1   0.000000   0.492761   0.250000    10.50000     0.52747     0.02156 =
      0.04853     0.00000     0.06168    -0.00000
AFIX 43
H23   2  -0.000000   0.521545   0.250000    10.50000    -1.20000
AFIX 0
C24   1   0.000000   0.092459   0.250000    10.50000     0.06156     0.01995 =
      0.07154     0.00000    -0.02162    -0.00000
C25   1   0.250908   0.084510   0.706905    11.00000     0.06193     0.04600 =
      0.05309    -0.00021     0.00386    -0.02882
AFIX 43
H25   2   0.224000   0.066993   0.757779    11.00000    -1.20000
AFIX 0
C26   1   0.008011   0.470001   0.150619    11.00000     0.39344     0.02371 =
      0.04476     0.00384     0.04053     0.01124
AFIX 43
H26   2   0.017433   0.483875   0.083070    11.00000    -1.20000
AFIX 0
C27   1   0.109848   0.316972   0.513897    11.00000     0.10735     0.15961 =
      0.16247     0.02352    -0.02681     0.04849
C29X  1   0.164632   0.052586   0.554182    11.00000     0.03791     0.02634 =
      0.07413    -0.00160     0.00610    -0.00836
C30X  1   0.130922   0.306873   0.616025    11.00000     0.15238     0.21001 =
      0.04597    -0.03652    -0.03637     0.14394
C32X  1   0.051597   0.282207   0.596797    11.00000     0.10944     0.29853 =
      0.13850    -0.14216    -0.08302     0.13842
C34X  1   0.175151   0.352419   0.526031    10.85000     0.21692     0.18145 =
      0.07235     0.05538     0.04368     0.16149
HKLF 4
END
