TITL p770a_a.res in P-1
REM Old TITL p770 SHELXT trial in P1
REM SHELXT solution in P-1: R1 0.130, Rweak 0.016, Alpha 0.042
REM <I/s>   0.000 for    0 systematic absences,  Orientation as input
REM Formula found by SHELXT:  C44 N8 P2 Ni La

CELL  0.71073  10.1554  12.7075  20.8008  107.691  100.315   96.233
ZERR    2.000   0.0017   0.0021   0.0044    0.003    0.003    0.002
LATT  1
SFAC C H N P NI LA
UNIT 20 20 20 20 20 20
L.S. 10
BOND
LIST 6
FMAP 2
PLAN 20
LA01  6  0.42916  0.29151  0.26984 11.00000  0.04074  66.76
NI02  5  0.46693  0.07034  0.20752 11.00000  0.04343  35.04
P003  4  0.26076  0.05228  0.14575 11.00000  0.04574  17.71
P004  4  0.51137  0.07157  0.31487 11.00000  0.04746  17.69
N005  3  0.25288  0.28057  0.17010 11.00000  0.04471   8.03
N006  3  0.38153  0.24578  0.37466 11.00000  0.05126   7.86
N007  3  0.62972  0.29744  0.21843 11.00000  0.05201   7.46
C008  1  0.29589  0.49395  0.26987 11.00000  0.04683   7.23
N009  3  0.11648  0.34928  0.08365 11.00000  0.06674   7.01
N00A  3  0.24600  0.44737  0.31543 11.00000  0.06059   7.00
N00B  3  0.32886  0.45717  0.37965 11.00000  0.05924   6.89
C00C  1  0.19416  0.36315  0.14892 11.00000  0.04884   6.58
C00D  1  0.57196 -0.14400  0.14198 11.00000  0.05821   6.56
N00E  3  0.21076  0.47102  0.19917 11.00000  0.05528   6.51
C00F  1  0.59185  0.18782  0.19279 11.00000  0.05548   6.45
C00G  1  0.43132  0.55251  0.28965 11.00000  0.05304   6.40
C00H  1  0.27579  0.40170  0.42583 11.00000  0.05278   6.26
C00I  1  0.22085  0.17341  0.11618 11.00000  0.05528   6.06
C00J  1  0.15438  0.55963  0.18479 11.00000  0.06359   6.04
N00K  3  0.53038 -0.06222  0.16558 11.00000  0.06934   5.94
C00L  1  0.19421  0.45151  0.46993 11.00000  0.06624   5.83
C00M  1  0.46163  0.51310  0.39688 11.00000  0.06209   5.76
C00N  1  0.73275  0.35764  0.19829 11.00000  0.06231   5.72
C00O  1  0.05955  0.43573  0.06791 11.00000  0.06748   5.71
C00P  1  0.30903  0.29515  0.42228 11.00000  0.05247   5.67
C00Q  1  0.17613  0.29875  0.51262 11.00000  0.07989   5.55
C00R  1  0.69073  0.13441  0.36461 11.00000  0.06210   5.46
C00S  1  0.10595  0.01589  0.17470 11.00000  0.06963   5.42
C00T  1  0.51440  0.56223  0.35299 11.00000  0.06091   5.36
C00U  1  0.71539  0.26474  0.38509 11.00000  0.07377   5.35
C00V  1  0.41661  0.13982  0.38132 11.00000  0.05563   5.31
C00W  1  0.07503  0.53961  0.11500 11.00000  0.06841   5.22
C00X  1  0.25593  0.24508  0.46798 11.00000  0.06256   5.20
C00Y  1  0.22268 -0.05713  0.05576 11.00000  0.06877   5.19
C00Z  1  0.14492  0.39721  0.51444 11.00000  0.07625   5.13
C010  1  0.49735 -0.07306  0.32167 11.00000  0.07376   5.05
C011  1  0.33229 -0.04320  0.01941 11.00000  0.07928   4.94
C012  1  0.35436 -0.14531  0.28151 11.00000  0.08848   4.91
C013  1  0.60468 -0.25410  0.11393 11.00000  0.07049   4.80
C014  1  1.07720  0.71021  0.36684 11.00000  0.10653   4.77
C015  1  0.79531  0.09183  0.32244 11.00000  0.08559   4.69
C016  1  0.20236 -0.17621  0.06187 11.00000  0.08430   4.69
C017  1  0.85628  0.30174  0.18596 11.00000  0.12079   4.25
C018  1  0.10697  0.10240  0.24383 11.00000  0.09998   4.07
C019  1 -0.03520  0.00032  0.12290 11.00000  0.11089   3.93
C01A  1  1.05379  0.93671  0.40747 11.00000  0.11933   3.92
C01B  1  0.54200 -0.08357  0.39426 11.00000  0.09640   3.88
C01C  1  0.77764  0.47662  0.24836 11.00000  0.11911   3.80
C01D  1  0.64044 -0.25596  0.04741 11.00000  0.12066   3.66
C01E  1  0.66915  0.37334  0.12508 11.00000  0.11625   3.55
C01F  1  1.14540  0.90610  0.44813 11.00000  0.12889   3.33
C01G  1  1.00189  0.74610  0.32728 11.00000  0.12104   3.24
C01H  1  0.48667 -0.34765  0.09976 11.00000  0.12047   3.19
C01I  1  0.97990  0.85478  0.34702 11.00000  0.15048   3.13
C01J  1  1.17463  0.78669  0.42411 11.00000  0.15439   3.12
C01K  1  0.73083 -0.25752  0.16781 11.00000  0.11501   3.08
HKLF 4
END
