TITL CrystalPilot n0058 in P -1
REM CrystalPilot node n0058 tool=add_hydrogens
REM R1 = 0.0686 wR2 = 0.2143 GooF = 1.047
CELL 0.71073 10.15540 12.70750 20.80080 107.6910 100.3150 96.2330
ZERR 2 0.00170 0.00210 0.00440 0.0030 0.0030 0.0020
LATT 1
SFAC C H N Si P Ni
UNIT 88.0 132.0 16.0 2.0 4.0 2.0

DFIX 1.3900 0.010 C28 C40
DFIX 1.3900 0.010 C40 C42
DFIX 1.3900 0.010 C42 C34
DFIX 1.3900 0.010 C34 C39
DFIX 1.3900 0.010 C39 C43
DFIX 1.3900 0.010 C43 C28
FLAT 0.01 C28 C40 C42 C34 C39 C43

WGHT 0.082660 10.758620
FVAR 0.18998
LA1   4   0.429120   0.291514   0.269800    11.00000     0.04311     0.03269 =
      0.04263     0.00566     0.00730     0.00965
NI1   6   0.466932   0.070252   0.207512    11.00000     0.04994     0.03168 =
      0.04631     0.00540     0.01023     0.01108
P1    5   0.260799   0.052337   0.145795    11.00000     0.05176     0.03267 =
      0.04687     0.00303     0.00505     0.00682
P2    5   0.511730   0.071691   0.314999    11.00000     0.06011     0.03571 =
      0.04891     0.00985     0.00951     0.01476
N1    3   0.252209   0.280826   0.169721    11.00000     0.05694     0.03269 =
      0.04729     0.00719     0.00348     0.01113
N2    3   0.382926   0.246817   0.375491    11.00000     0.06401     0.04104 =
      0.04833     0.01032     0.01673     0.01603
N3    3   0.627179   0.295774   0.216870    11.00000     0.04675     0.04319 =
      0.05372     0.00978     0.00986     0.00301
C1    1   0.294796   0.493786   0.270006    11.00000     0.05560     0.03464 =
      0.04900     0.00692     0.00468     0.01234
N4    3   0.116911   0.348026   0.082373    11.00000     0.08666     0.06330 =
      0.05254     0.01554     0.00402     0.01297
N5    3   0.244727   0.448844   0.315868    11.00000     0.07117     0.05389 =
      0.05470     0.00763     0.00681     0.02285
N6    3   0.328311   0.458194   0.380232    11.00000     0.07044     0.04623 =
      0.05247     0.00363     0.00898     0.01952
C2    1   0.194722   0.362869   0.149765    11.00000     0.05402     0.03867 =
      0.04590     0.01365     0.00602     0.00986
C3    1   0.569909  -0.143777   0.142684    11.00000     0.08383     0.03409 =
      0.05636     0.00564     0.02057     0.02717
N7    3   0.212272   0.472663   0.199350    11.00000     0.06195     0.04903 =
      0.05750     0.01214     0.00737     0.00784
C4    1   0.593617   0.187172   0.192582    11.00000     0.05137     0.04689 =
      0.05792     0.01339     0.01351     0.01211
C5    1   0.429680   0.551372   0.289026    11.00000     0.06231     0.03894 =
      0.06553     0.01285     0.00623     0.00566
AFIX 43
H5    2   0.463425   0.582918   0.259069    11.00000    -1.20000
AFIX 0
C6    1   0.274412   0.401964   0.425829    11.00000     0.06260     0.04958 =
      0.04232     0.00554     0.00643     0.01865
C7    1   0.221713   0.163530   0.117026    11.00000     0.07577     0.03961 =
      0.05043     0.00467    -0.00433     0.01430
AFIX 23
H7A   2   0.125367   0.147125   0.095786    11.00000    -1.20000
H7B   2   0.270730   0.164612   0.081200    11.00000    -1.20000
AFIX 0
C8    1   0.153779   0.557721   0.182694    11.00000     0.08384     0.04024 =
      0.06283     0.01518     0.00504     0.01599
AFIX 43
H8    2   0.166350   0.627790   0.216422    11.00000    -1.20000
AFIX 0
N8    3   0.529913  -0.061258   0.166208    11.00000     0.07190     0.06162 =
      0.06638     0.01891     0.01341     0.01283
C9    1   0.194264   0.450722   0.469737    11.00000     0.07143     0.07009 =
      0.04989     0.00485     0.01657     0.02764
AFIX 43
H9    2   0.172714   0.520289   0.470439    11.00000    -1.20000
AFIX 0
C10   1   0.460716   0.514898   0.397169    11.00000     0.06607     0.04369 =
      0.05138     0.00141    -0.00277     0.00832
AFIX 43
H10   2   0.515802   0.521872   0.439608    11.00000    -1.20000
AFIX 0
C11   1   0.735884   0.360499   0.198494    11.00000     0.05918     0.04956 =
      0.08430     0.01716     0.02996     0.00201
C12   1   0.059962   0.434662   0.067478    11.00000     0.10342     0.05914 =
      0.05116     0.02332    -0.00694     0.01045
AFIX 43
H12   2   0.008836   0.421552   0.023120    11.00000    -1.20000
AFIX 0
C13   1   0.309862   0.295232   0.421858    11.00000     0.06380     0.04540 =
      0.04460     0.00705     0.01240     0.01168
C14   1   0.176484   0.296750   0.511441    11.00000     0.08426     0.08079 =
      0.05869     0.01306     0.02648     0.01237
AFIX 43
H14   2   0.143093   0.261007   0.539635    11.00000    -1.20000
AFIX 0
C15   1   0.678429   0.130541   0.361649    11.00000     0.06584     0.05755 =
      0.06156     0.02000    -0.00191     0.01165
AFIX 13
H15   2   0.676905   0.105236   0.401606    11.00000    -1.20000
AFIX 0
C16   1   0.115817   0.018954   0.175098    11.00000     0.04643     0.08334 =
      0.08860     0.02704     0.00834    -0.00252
AFIX 13
H16   2   0.140808  -0.052600   0.176935    11.00000    -1.20000
AFIX 0
C17   1   0.514287   0.561705   0.353197    11.00000     0.06655     0.04522 =
      0.06360     0.00794    -0.00234    -0.00248
AFIX 43
H17   2   0.603765   0.598994   0.365672    11.00000    -1.20000
AFIX 0
C18   1   0.717344   0.263056   0.386419    11.00000     0.07296     0.06879 =
      0.07294     0.01674     0.00387     0.00402
AFIX 137
H18A  2   0.810547   0.285764   0.411310    11.00000    -1.50000
H18B  2   0.659870   0.295864   0.416119    11.00000    -1.50000
H18C  2   0.705185   0.287795   0.346828    11.00000    -1.50000
AFIX 0
C19   1   0.422226   0.134500   0.376688    11.00000     0.07919     0.04669 =
      0.04970     0.01611     0.01948     0.02139
AFIX 23
H19A  2   0.477124   0.145708   0.422253    11.00000    -1.20000
H19B  2   0.339733   0.082566   0.370200    11.00000    -1.20000
AFIX 0
C20   1   0.076691   0.540361   0.116566    11.00000     0.11324     0.05255 =
      0.06096     0.02281    -0.00004     0.02950
AFIX 43
H20   2   0.037845   0.597556   0.105716    11.00000    -1.20000
AFIX 0
C21   1   0.257962   0.244992   0.468438    11.00000     0.08306     0.06117 =
      0.05346     0.01754     0.02419     0.01489
AFIX 43
H21   2   0.279733   0.176274   0.469604    11.00000    -1.20000
AFIX 0
C22   1   0.223637  -0.048869   0.063294    11.00000     0.08522     0.04907 =
      0.05613    -0.00386    -0.00555     0.01365
AFIX 13
H22   2   0.139153  -0.030540   0.041744    11.00000    -1.20000
AFIX 0
C23   1   0.144839   0.399165   0.512866    11.00000     0.07574     0.09625 =
      0.06032     0.01585     0.02860     0.03465
AFIX 43
H23   2   0.091336   0.433652   0.542091    11.00000    -1.20000
AFIX 0
C24   1   0.498617  -0.063111   0.321305    11.00000     0.10461     0.04233 =
      0.07766     0.02489     0.01519     0.01978
AFIX 13
H24   2   0.571668  -0.083382   0.297371    11.00000    -1.20000
AFIX 0
C25   1   0.336886  -0.040176   0.019225    11.00000     0.11832     0.07748 =
      0.05989     0.00529     0.01906     0.03351
AFIX 137
H25A  2   0.309735  -0.098019  -0.025180    11.00000    -1.50000
H25B  2   0.422326  -0.049194   0.043549    11.00000    -1.50000
H25C  2   0.346196   0.031874   0.013001    11.00000    -1.50000
AFIX 0
C26   1   0.359128  -0.142352   0.283301    11.00000     0.10709     0.05231 =
      0.10290     0.02447     0.01599    -0.00782
AFIX 137
H26A  2   0.361389  -0.213977   0.289573    11.00000    -1.50000
H26B  2   0.342778  -0.151914   0.234791    11.00000    -1.50000
H26C  2   0.287680  -0.109755   0.302235    11.00000    -1.50000
AFIX 0
C27   1   0.608646  -0.252718   0.114389    11.00000     0.09555     0.04538 =
      0.08529     0.01104     0.03116     0.03821
C28   1   1.092752   0.715077   0.371313    11.00000     0.15733     0.07774 =
      0.12055     0.03310     0.04623     0.03845
AFIX 43
H28   2   1.103373   0.640276   0.358924    11.00000    -1.20000
AFIX 0
C29   1   0.790933   0.087764   0.323233    11.00000     0.06237     0.10920 =
      0.11468     0.03244     0.00821     0.03490
AFIX 137
H29A  2   0.878844   0.123967   0.352213    11.00000    -1.50000
H29B  2   0.780261   0.104930   0.280921    11.00000    -1.50000
H29C  2   0.782876   0.008090   0.312942    11.00000    -1.50000
AFIX 0
C30   1   0.196327  -0.175307   0.062117    11.00000     0.10729     0.04483 =
      0.09461    -0.00901    -0.01134     0.00783
AFIX 137
H30A  2   0.176857  -0.225046   0.015145    11.00000    -1.50000
H30B  2   0.120245  -0.186217   0.082336    11.00000    -1.50000
H30C  2   0.275414  -0.190882   0.088163    11.00000    -1.50000
AFIX 0
C31   1   0.856064   0.303891   0.190074    11.00000     0.07001     0.12360 =
      0.22921     0.07114     0.08299     0.02828
AFIX 137
H31A  2   0.922753   0.349827   0.178222    11.00000    -1.50000
H31B  2   0.828076   0.232556   0.153900    11.00000    -1.50000
H31C  2   0.894652   0.292885   0.232685    11.00000    -1.50000
AFIX 0
C32   1   0.100792   0.097684   0.243202    11.00000     0.07568     0.13563 =
      0.08526     0.02055     0.01929     0.01779
AFIX 137
H32A  2   0.017977   0.070815   0.253765    11.00000    -1.50000
H32B  2   0.098310   0.171212   0.239920    11.00000    -1.50000
H32C  2   0.176539   0.101076   0.279217    11.00000    -1.50000
AFIX 0
C33   1  -0.035644  -0.002610   0.126569    11.00000     0.05301     0.15861 =
      0.12606     0.02005     0.00641    -0.00159
AFIX 137
H33A  2  -0.102080  -0.019772   0.151083    11.00000    -1.50000
H33B  2  -0.043959  -0.064342   0.084835    11.00000    -1.50000
H33C  2  -0.050309   0.063554   0.115140    11.00000    -1.50000
AFIX 0
C34   1   1.057900   0.936371   0.406119    11.00000     0.17334     0.08889 =
      0.15556     0.00216    -0.00010     0.03449
AFIX 43
H34   2   1.046852   1.011063   0.418195    11.00000    -1.20000
AFIX 0
C35   1   0.541747  -0.081102   0.394469    11.00000     0.18027     0.07200 =
      0.09800     0.04794     0.00628     0.02452
AFIX 137
H35A  2   0.527830  -0.159886   0.388078    11.00000    -1.50000
H35B  2   0.487375  -0.044768   0.424898    11.00000    -1.50000
H35C  2   0.635940  -0.049459   0.414375    11.00000    -1.50000
AFIX 0
C36   1   0.773296   0.474799   0.249377    11.00000     0.21176     0.08062 =
      0.19896    -0.02853     0.12564    -0.06540
AFIX 137
H36A  2   0.843875   0.516966   0.237534    11.00000    -1.50000
H36B  2   0.805182   0.470718   0.294733    11.00000    -1.50000
H36C  2   0.695178   0.511096   0.248977    11.00000    -1.50000
AFIX 0
C37   1   0.639244  -0.259432   0.047233    11.00000     0.15068     0.11855 =
      0.10596     0.00317     0.05374     0.04639
AFIX 137
H37A  2   0.665198  -0.330532   0.027207    11.00000    -1.50000
H37B  2   0.712454  -0.200138   0.053483    11.00000    -1.50000
H37C  2   0.560140  -0.252027   0.016978    11.00000    -1.50000
AFIX 0
C38   1   0.676919   0.370142   0.127024    11.00000     0.12172     0.13499 =
      0.13634     0.07652     0.02807    -0.01258
AFIX 137
H38A  2   0.745310   0.411893   0.113588    11.00000    -1.50000
H38B  2   0.600296   0.408056   0.129819    11.00000    -1.50000
H38C  2   0.648548   0.296463   0.093300    11.00000    -1.50000
AFIX 0
C39   1   1.149807   0.902210   0.448629    11.00000     0.18910     0.13620 =
      0.09807     0.01787    -0.02746    -0.00865
AFIX 43
H39   2   1.201056   0.954440   0.489808    11.00000    -1.20000
AFIX 0
C40   1   1.001765   0.750722   0.329724    11.00000     0.15683     0.09263 =
      0.16473     0.00256    -0.01599     0.02045
AFIX 43
H40   2   0.950288   0.698710   0.288522    11.00000    -1.20000
AFIX 0
C41   1   0.483652  -0.346063   0.103907    11.00000     0.17795     0.04949 =
      0.24521     0.04137     0.09741     0.02766
AFIX 137
H41A  2   0.506858  -0.418757   0.085256    11.00000    -1.50000
H41B  2   0.407341  -0.337462   0.072420    11.00000    -1.50000
H41C  2   0.460599  -0.338841   0.147657    11.00000    -1.50000
AFIX 0
C42   1   0.982773   0.859986   0.345975    11.00000     0.18328     0.10913 =
      0.16550     0.00341    -0.02084     0.05068
AFIX 43
H42   2   0.919594   0.881562   0.316389    11.00000    -1.20000
AFIX 0
C43   1   1.168238   0.791995   0.431812    11.00000     0.16077     0.23371 =
      0.16542     0.13460     0.03290     0.07709
AFIX 43
H43   2   1.231345   0.770186   0.461301    11.00000    -1.20000
AFIX 0
C44   1   0.722443  -0.264549   0.165468    11.00000     0.18944     0.10452 =
      0.13871     0.02562    -0.00211     0.08739
AFIX 137
H44A  2   0.749084  -0.336048   0.147500    11.00000    -1.50000
H44B  2   0.694163  -0.259457   0.207790    11.00000    -1.50000
H44C  2   0.798038  -0.205829   0.174311    11.00000    -1.50000
AFIX 0
HKLF 4
END
