TITL CrystalPilot n0032 in P -1
REM CrystalPilot node n0032 tool=refine
REM R1 = 0.07 wR2 = 0.2259 GooF = 1.018
CELL 0.71073 10.15540 12.70750 20.80080 107.6910 100.3150 96.2330
ZERR 2 0.00170 0.00210 0.00440 0.0030 0.0030 0.0020
LATT 1
SFAC C H N P Ni La
UNIT 88.0 110.0 16.0 4.0 2.0 2.0

WGHT 0.103410 10.855880
FVAR 0.18993
LA1   6   0.429121   0.291508   0.269804    11.00000     0.04310     0.03269 =
      0.04261     0.00566     0.00735     0.00961
NI1   5   0.466900   0.070248   0.207508    11.00000     0.04989     0.03168 =
      0.04632     0.00536     0.01028     0.01106
P1    4   0.260707   0.052261   0.145740    11.00000     0.05170     0.03279 =
      0.04692     0.00308     0.00522     0.00684
P2    4   0.511716   0.071592   0.314944    11.00000     0.06013     0.03570 =
      0.04887     0.00967     0.00954     0.01481
N1    3   0.252112   0.280839   0.169938    11.00000     0.05732     0.03254 =
      0.04728     0.00728     0.00348     0.01114
N2    3   0.382500   0.246290   0.375222    11.00000     0.06543     0.04159 =
      0.04783     0.00990     0.01704     0.01667
N3    3   0.628091   0.297090   0.217432    11.00000     0.04658     0.04347 =
      0.05418     0.00976     0.00947     0.00324
C1    1   0.295432   0.494254   0.270016    11.00000     0.05596     0.03516 =
      0.04987     0.00731     0.00401     0.01218
N4    3   0.116657   0.349110   0.082804    11.00000     0.08697     0.06122 =
      0.05315     0.01496     0.00405     0.01261
N5    3   0.245526   0.448589   0.315801    11.00000     0.06823     0.05392 =
      0.05461     0.00830     0.00669     0.02027
N6    3   0.328681   0.457403   0.379981    11.00000     0.06958     0.04572 =
      0.05258     0.00362     0.00794     0.01794
C2    1   0.194112   0.363107   0.149755    11.00000     0.05291     0.03874 =
      0.04629     0.01375     0.00697     0.00981
C3    1   0.571178  -0.143359   0.142575    11.00000     0.08588     0.03443 =
      0.05749     0.00618     0.02125     0.02829
N7    3   0.211939   0.472400   0.199032    11.00000     0.06165     0.04841 =
      0.05718     0.01197     0.00719     0.00758
C4    1   0.592991   0.187250   0.192407    11.00000     0.05177     0.04646 =
      0.05771     0.01243     0.01416     0.01258
C5    1   0.430955   0.551630   0.288514    11.00000     0.06209     0.03881 =
      0.06592     0.01314     0.00588     0.00520
C6    1   0.274700   0.402188   0.425544    11.00000     0.06271     0.05026 =
      0.04175     0.00480     0.00666     0.01928
C7    1   0.219932   0.171458   0.115330    11.00000     0.07599     0.03968 =
      0.05002     0.00461    -0.00431     0.01432
C8    1   0.152960   0.559190   0.183838    11.00000     0.08326     0.04159 =
      0.06375     0.01639     0.00532     0.01580
AFIX 43
H8    2   0.164540   0.628859   0.217840    11.00000    -1.20000
AFIX 0
N8    3   0.530988  -0.061456   0.165486    11.00000     0.07259     0.06111 =
      0.06414     0.01763     0.01262     0.01330
C9    1   0.194099   0.452262   0.469744    11.00000     0.07468     0.07095 =
      0.04972     0.00486     0.01723     0.03034
AFIX 43
H9    2   0.172921   0.522010   0.470648    11.00000    -1.20000
AFIX 0
C10   1   0.462392   0.514377   0.397099    11.00000     0.06582     0.04436 =
      0.05275     0.00223    -0.00325     0.00890
C11   1   0.733547   0.359339   0.197436    11.00000     0.05980     0.04991 =
      0.08350     0.01639     0.02932     0.00219
C12   1   0.059667   0.435607   0.067894    11.00000     0.10026     0.05966 =
      0.05158     0.02361    -0.00584     0.00925
AFIX 43
H12   2   0.008792   0.422455   0.023478    11.00000    -1.20000
AFIX 0
C13   1   0.309003   0.294806   0.421703    11.00000     0.06371     0.04610 =
      0.04401     0.00694     0.01256     0.01204
C14   1   0.175533   0.297980   0.511921    11.00000     0.08465     0.08018 =
      0.05920     0.01184     0.02620     0.01018
AFIX 43
H14   2   0.142851   0.262707   0.540505    11.00000    -1.20000
AFIX 0
C15   1   0.690411   0.134545   0.364574    11.00000     0.06537     0.05831 =
      0.06204     0.02070    -0.00245     0.01054
C16   1   0.105792   0.015347   0.175821    11.00000     0.04693     0.08343 =
      0.09017     0.02937     0.00915    -0.00260
C17   1   0.513800   0.561288   0.352963    11.00000     0.06485     0.04605 =
      0.06436     0.00832    -0.00118    -0.00360
C18   1   0.715300   0.263746   0.385964    11.00000     0.07116     0.06872 =
      0.07450     0.01634     0.00123     0.00306
AFIX 137
H18A  2   0.650297   0.292693   0.411891    11.00000    -1.50000
H18B  2   0.805489   0.293362   0.414040    11.00000    -1.50000
H18C  2   0.705592   0.285528   0.345261    11.00000    -1.50000
AFIX 0
C19   1   0.416744   0.139101   0.380970    11.00000     0.07908     0.04601 =
      0.04921     0.01571     0.01893     0.01967
C20   1   0.075632   0.540034   0.116357    11.00000     0.11104     0.05343 =
      0.06022     0.02256     0.00080     0.02993
AFIX 43
H20   2   0.036549   0.596830   0.105100    11.00000    -1.20000
AFIX 0
C21   1   0.257220   0.244293   0.468118    11.00000     0.08292     0.06147 =
      0.05283     0.01716     0.02381     0.01496
AFIX 43
H21   2   0.278171   0.175256   0.469075    11.00000    -1.20000
AFIX 0
C22   1   0.221985  -0.055931   0.056667    11.00000     0.08405     0.04958 =
      0.05674    -0.00398    -0.00608     0.01262
C23   1   0.143797   0.398457   0.513423    11.00000     0.07490     0.09348 =
      0.06239     0.01601     0.03022     0.03274
AFIX 43
H23   2   0.089792   0.432296   0.542561    11.00000    -1.20000
AFIX 0
C24   1   0.497016  -0.073138   0.321502    11.00000     0.10444     0.04290 =
      0.07676     0.02411     0.01460     0.02033
C25   1   0.334114  -0.041208   0.019056    11.00000     0.11476     0.07708 =
      0.05986     0.00613     0.02067     0.03071
AFIX 137
H25A  2   0.345039   0.033123   0.016210    11.00000    -1.50000
H25B  2   0.417717  -0.052279   0.043954    11.00000    -1.50000
H25C  2   0.310480  -0.095160  -0.026776    11.00000    -1.50000
AFIX 0
C26   1   0.354539  -0.144639   0.281906    11.00000     0.11064     0.05241 =
      0.10248     0.02501     0.01400    -0.00754
AFIX 137
H26A  2   0.331572  -0.136690   0.236998    11.00000    -1.50000
H26B  2   0.356583  -0.222070   0.276801    11.00000    -1.50000
H26C  2   0.287725  -0.119186   0.307535    11.00000    -1.50000
AFIX 0
C27   1   0.605051  -0.253563   0.114166    11.00000     0.09577     0.04515 =
      0.08555     0.01155     0.03141     0.03746
C28   1   1.078844   0.711301   0.366784    11.00000     0.12988     0.07933 =
      0.12398     0.02827     0.02632     0.02868
AFIX 43
H28   2   1.072104   0.634431   0.358021    11.00000    -1.20000
AFIX 0
C29   1   0.794415   0.091382   0.323795    11.00000     0.06713     0.11877 =
      0.11328     0.03288     0.00864     0.04227
AFIX 137
H29A  2   0.780546   0.011005   0.310005    11.00000    -1.50000
H29B  2   0.784319   0.113992   0.283393    11.00000    -1.50000
H29C  2   0.884217   0.121827   0.352171    11.00000    -1.50000
AFIX 0
C30   1   0.200710  -0.175483   0.062493    11.00000     0.10348     0.04582 =
      0.09558    -0.00892    -0.00791     0.00816
AFIX 137
H30A  2   0.129432  -0.182445   0.086428    11.00000    -1.50000
H30B  2   0.176165  -0.230336   0.016957    11.00000    -1.50000
H30C  2   0.283401  -0.187455   0.087688    11.00000    -1.50000
AFIX 0
C31   1   0.856355   0.302348   0.186367    11.00000     0.07474     0.11833 =
      0.20607     0.05772     0.07975     0.02919
AFIX 137
H31A  2   0.920542   0.348745   0.173393    11.00000    -1.50000
H31B  2   0.898402   0.291452   0.228485    11.00000    -1.50000
H31C  2   0.827349   0.231008   0.150264    11.00000    -1.50000
AFIX 0
C32   1   0.106025   0.101677   0.244873    11.00000     0.07982     0.12817 =
      0.08469     0.01963     0.02273     0.01959
AFIX 137
H32A  2   0.191407   0.111770   0.276512    11.00000    -1.50000
H32B  2   0.093162   0.171752   0.238298    11.00000    -1.50000
H32C  2   0.033653   0.076071   0.263451    11.00000    -1.50000
AFIX 0
C33   1  -0.036336  -0.000869   0.123622    11.00000     0.05122     0.16255 =
      0.13540     0.02499     0.00821    -0.00682
AFIX 137
H33A  2  -0.037034  -0.055379   0.079870    11.00000    -1.50000
H33B  2  -0.108523  -0.026335   0.142363    11.00000    -1.50000
H33C  2  -0.049013   0.069345   0.117210    11.00000    -1.50000
AFIX 0
C34   1   1.054307   0.936539   0.407145    11.00000     0.18959     0.08825 =
      0.15215     0.00323    -0.02161     0.04478
AFIX 43
H34   2   1.040357   1.010476   0.418248    11.00000    -1.20000
AFIX 0
C35   1   0.541424  -0.081940   0.395341    11.00000     0.16876     0.07461 =
      0.09948     0.05014     0.00662     0.01976
AFIX 137
H35A  2   0.629386  -0.036741   0.417698    11.00000    -1.50000
H35B  2   0.476654  -0.055801   0.422210    11.00000    -1.50000
H35C  2   0.545511  -0.158685   0.391476    11.00000    -1.50000
AFIX 0
C36   1   0.776616   0.476886   0.249314    11.00000     0.18467     0.08022 =
      0.19267    -0.02532     0.10811    -0.05274
AFIX 137
H36A  2   0.846107   0.517630   0.235957    11.00000    -1.50000
H36B  2   0.699704   0.514621   0.250431    11.00000    -1.50000
H36C  2   0.811319   0.472872   0.294418    11.00000    -1.50000
AFIX 0
C37   1   0.640180  -0.255006   0.046630    11.00000     0.17086     0.13576 =
      0.09975     0.00249     0.05325     0.06201
AFIX 137
H37A  2   0.663942  -0.326214   0.024644    11.00000    -1.50000
H37B  2   0.563258  -0.243353   0.016935    11.00000    -1.50000
H37C  2   0.715743  -0.196372   0.055243    11.00000    -1.50000
AFIX 0
C38   1   0.669363   0.372103   0.126157    11.00000     0.13453     0.12502 =
      0.13170     0.06917     0.03326    -0.00690
AFIX 137
H38A  2   0.736897   0.412963   0.111710    11.00000    -1.50000
H38B  2   0.637244   0.299141   0.092012    11.00000    -1.50000
H38C  2   0.594763   0.411996   0.131230    11.00000    -1.50000
AFIX 0
C39   1   1.145067   0.905550   0.448008    11.00000     0.17384     0.14461 =
      0.09571     0.01314    -0.02083    -0.00482
AFIX 43
H39   2   1.190925   0.956216   0.490920    11.00000    -1.20000
AFIX 0
C40   1   1.002766   0.747381   0.326974    11.00000     0.13917     0.09182 =
      0.17037     0.01425    -0.01639     0.02559
AFIX 43
H40   2   0.960532   0.699484   0.282657    11.00000    -1.20000
AFIX 0
C41   1   0.485506  -0.347196   0.101578    11.00000     0.15515     0.05222 =
      0.25385     0.04077     0.08270     0.02625
AFIX 137
H41A  2   0.511635  -0.418673   0.082829    11.00000    -1.50000
H41B  2   0.460156  -0.342282   0.144562    11.00000    -1.50000
H41C  2   0.409727  -0.339380   0.069445    11.00000    -1.50000
AFIX 0
C42   1   0.980634   0.855010   0.347165    11.00000     0.16578     0.12237 =
      0.15257     0.00883    -0.01189     0.04296
AFIX 43
H42   2   0.912350   0.874633   0.319099    11.00000    -1.20000
AFIX 0
C43   1   1.174971   0.786678   0.424995    11.00000     0.15174     0.26509 =
      0.21547     0.18092     0.03851     0.07218
AFIX 43
H43   2   1.250062   0.765325   0.447284    11.00000    -1.20000
AFIX 0
C44   1   0.731255  -0.258319   0.167906    11.00000     0.18102     0.10992 =
      0.14085     0.02881    -0.00121     0.08706
AFIX 137
H44A  2   0.759157  -0.329815   0.152087    11.00000    -1.50000
H44B  2   0.804391  -0.199806   0.172825    11.00000    -1.50000
H44C  2   0.707769  -0.248258   0.211828    11.00000    -1.50000
AFIX 0
HKLF 4
END
