TITL CrystalPilot n0055 in P -1
REM CrystalPilot node n0055 tool=edit_atoms
CELL 0.71073 10.15540 12.70750 20.80080 107.6910 100.3150 96.2330
ZERR 2 0.00170 0.00210 0.00440 0.0030 0.0030 0.0020
LATT 1
SFAC C H N P Ni La
UNIT 88.0 132.0 16.0 4.0 2.0 2.0

DFIX 1.3900 0.010 C28 C40
DFIX 1.3900 0.010 C40 C42
DFIX 1.3900 0.010 C42 C34
DFIX 1.3900 0.010 C34 C39
DFIX 1.3900 0.010 C39 C43
DFIX 1.3900 0.010 C43 C28
FLAT 0.01 C28 C40 C42 C34 C39 C43

WGHT 0.082660 10.758620
FVAR 0.19036
LA1   6   0.429122   0.291507   0.269798    11.00000     0.04314     0.03276 =
      0.04273     0.00569     0.00726     0.00972
NI1   5   0.466939   0.070261   0.207512    11.00000     0.05001     0.03166 =
      0.04641     0.00546     0.01012     0.01113
P1    4   0.260804   0.052337   0.145801    11.00000     0.05182     0.03271 =
      0.04682     0.00291     0.00487     0.00686
P2    4   0.511728   0.071693   0.315005    11.00000     0.06015     0.03580 =
      0.04895     0.00993     0.00960     0.01488
N1    3   0.252210   0.280825   0.169721    11.00000     0.05697     0.03263 =
      0.04744     0.00703     0.00339     0.01125
N2    3   0.382925   0.246817   0.375491    11.00000     0.06366     0.04118 =
      0.04810     0.01028     0.01686     0.01573
N3    3   0.627179   0.295774   0.216872    11.00000     0.04760     0.04303 =
      0.05351     0.01033     0.01010     0.00334
C1    1   0.294796   0.493786   0.270006    11.00000     0.05567     0.03470 =
      0.04842     0.00721     0.00516     0.01256
N4    3   0.116911   0.348026   0.082375    11.00000     0.08676     0.06446 =
      0.05348     0.01607     0.00419     0.01428
N5    3   0.244727   0.448843   0.315868    11.00000     0.07233     0.05372 =
      0.05486     0.00737     0.00732     0.02368
N6    3   0.328311   0.458194   0.380231    11.00000     0.07030     0.04688 =
      0.05270     0.00393     0.00966     0.02005
C2    1   0.194721   0.362869   0.149765    11.00000     0.05427     0.03842 =
      0.04522     0.01328     0.00509     0.00924
C3    1   0.569909  -0.143776   0.142684    11.00000     0.08310     0.03400 =
      0.05580     0.00600     0.02114     0.02717
N7    3   0.212272   0.472664   0.199349    11.00000     0.06266     0.04918 =
      0.05829     0.01252     0.00779     0.00805
C4    1   0.593616   0.187172   0.192580    11.00000     0.05166     0.04745 =
      0.05747     0.01380     0.01238     0.01218
C5    1   0.429680   0.551372   0.289027    11.00000     0.06303     0.03997 =
      0.06417     0.01492     0.00770     0.00491
AFIX 43
H5    2   0.463425   0.582917   0.259069    11.00000    -1.20000
AFIX 0
C6    1   0.274412   0.401963   0.425830    11.00000     0.06245     0.04942 =
      0.04271     0.00593     0.00628     0.01827
C7    1   0.219150   0.170820   0.115140    11.00000     0.07466     0.04168 =
      0.04897     0.00556    -0.00282     0.01378
AFIX 23
H7A   2   0.125369   0.147116   0.095788    11.00000    -1.20000
H7B   2   0.270732   0.164603   0.081202    11.00000    -1.20000
AFIX 0
C8    1   0.153779   0.557721   0.182693    11.00000     0.08264     0.04080 =
      0.06272     0.01564     0.00594     0.01679
AFIX 43
H8    2   0.166352   0.627790   0.216422    11.00000    -1.20000
AFIX 0
N8    3   0.529913  -0.061257   0.166207    11.00000     0.07217     0.06241 =
      0.06484     0.01799     0.01331     0.01240
C9    1   0.194264   0.450722   0.469738    11.00000     0.07090     0.06892 =
      0.04951     0.00435     0.01655     0.02675
AFIX 43
H9    2   0.172715   0.520289   0.470441    11.00000    -1.20000
AFIX 0
C10   1   0.460716   0.514898   0.397168    11.00000     0.06635     0.04610 =
      0.04874     0.00074    -0.00516     0.00859
AFIX 43
H10   2   0.515802   0.521871   0.439606    11.00000    -1.20000
AFIX 0
C11   1   0.735884   0.360498   0.198493    11.00000     0.05936     0.04999 =
      0.08365     0.01718     0.02892     0.00183
C12   1   0.059961   0.434662   0.067478    11.00000     0.10421     0.05904 =
      0.05228     0.02408    -0.00721     0.01020
AFIX 43
H12   2   0.008836   0.421551   0.023120    11.00000    -1.20000
AFIX 0
C13   1   0.309862   0.295233   0.421858    11.00000     0.06351     0.04552 =
      0.04447     0.00701     0.01145     0.01198
C14   1   0.176484   0.296751   0.511442    11.00000     0.08340     0.08053 =
      0.05820     0.01326     0.02609     0.01291
AFIX 43
H14   2   0.143094   0.261008   0.539637    11.00000    -1.20000
AFIX 0
C15   1   0.690010   0.134630   0.364890    11.00000     0.06771     0.05859 =
      0.05992     0.02178    -0.00264     0.01163
AFIX 13
H15   2   0.676906   0.105233   0.401605    11.00000    -1.20000
AFIX 0
C16   1   0.105420   0.016560   0.177200    11.00000     0.04824     0.08050 =
      0.09123     0.03025     0.00804    -0.00164
AFIX 13
H16   2   0.140784  -0.052606   0.176937    11.00000    -1.20000
AFIX 0
C17   1   0.514287   0.561705   0.353196    11.00000     0.06501     0.04517 =
      0.06557     0.00909    -0.00402    -0.00477
AFIX 43
H17   2   0.603765   0.598994   0.365671    11.00000    -1.20000
AFIX 0
C18   1   0.717345   0.263055   0.386416    11.00000     0.07498     0.06944 =
      0.07131     0.01690     0.00374     0.00240
AFIX 137
H18A  2   0.810549   0.285763   0.411304    11.00000    -1.50000
H18B  2   0.659875   0.295866   0.416119    11.00000    -1.50000
H18C  2   0.705180   0.287792   0.346825    11.00000    -1.50000
AFIX 0
C19   1   0.415970   0.138890   0.381000    11.00000     0.07688     0.04762 =
      0.04839     0.01588     0.01781     0.01876
AFIX 23
H19A  2   0.477122   0.145709   0.422254    11.00000    -1.20000
H19B  2   0.339733   0.082566   0.370199    11.00000    -1.20000
AFIX 0
C20   1   0.076691   0.540362   0.116567    11.00000     0.11293     0.05276 =
      0.06130     0.02314     0.00073     0.02956
AFIX 43
H20   2   0.037843   0.597557   0.105716    11.00000    -1.20000
AFIX 0
C21   1   0.257962   0.244993   0.468437    11.00000     0.08223     0.06132 =
      0.05319     0.01701     0.02351     0.01512
AFIX 43
H21   2   0.279732   0.176274   0.469602    11.00000    -1.20000
AFIX 0
C22   1   0.221000  -0.056050   0.057440    11.00000     0.08485     0.04963 =
      0.05610    -0.00400    -0.00738     0.01514
AFIX 13
H22   2   0.139158  -0.030520   0.041759    11.00000    -1.20000
AFIX 0
C23   1   0.144839   0.399164   0.512867    11.00000     0.07569     0.09743 =
      0.05932     0.01500     0.02701     0.03517
AFIX 43
H23   2   0.091336   0.433652   0.542092    11.00000    -1.20000
AFIX 0
C24   1   0.497630  -0.073260   0.321780    11.00000     0.10285     0.04290 =
      0.07794     0.02382     0.01974     0.02274
AFIX 13
H24   2   0.571664  -0.083384   0.297368    11.00000    -1.20000
AFIX 0
C25   1   0.336886  -0.040176   0.019225    11.00000     0.11787     0.07761 =
      0.06088     0.00433     0.01883     0.03433
AFIX 137
H25A  2   0.309726  -0.098018  -0.025180    11.00000    -1.50000
H25B  2   0.422326  -0.049200   0.043546    11.00000    -1.50000
H25C  2   0.346200   0.031874   0.013001    11.00000    -1.50000
AFIX 0
C26   1   0.359127  -0.142352   0.283301    11.00000     0.10552     0.05207 =
      0.10428     0.02523     0.01721    -0.00729
AFIX 137
H26A  2   0.361391  -0.213979   0.289570    11.00000    -1.50000
H26B  2   0.342774  -0.151910   0.234792    11.00000    -1.50000
H26C  2   0.287681  -0.109758   0.302237    11.00000    -1.50000
AFIX 0
C27   1   0.608646  -0.252719   0.114390    11.00000     0.09562     0.04508 =
      0.08609     0.01130     0.03174     0.03811
C28   1   1.092752   0.715078   0.371312    11.00000     0.15766     0.07791 =
      0.11793     0.03374     0.04643     0.03725
AFIX 43
H28   2   1.103375   0.640277   0.358922    11.00000    -1.20000
AFIX 0
C29   1   0.790933   0.087765   0.323234    11.00000     0.06271     0.10734 =
      0.10914     0.03072     0.00999     0.03465
AFIX 137
H29A  2   0.878843   0.123970   0.352214    11.00000    -1.50000
H29B  2   0.780260   0.104928   0.280921    11.00000    -1.50000
H29C  2   0.782879   0.008092   0.312944    11.00000    -1.50000
AFIX 0
C30   1   0.196327  -0.175307   0.062117    11.00000     0.10769     0.04541 =
      0.09509    -0.00929    -0.01278     0.00816
AFIX 137
H30A  2   0.176856  -0.225039   0.015143    11.00000    -1.50000
H30B  2   0.120246  -0.186220   0.082335    11.00000    -1.50000
H30C  2   0.275414  -0.190886   0.088160    11.00000    -1.50000
AFIX 0
C31   1   0.856064   0.303891   0.190075    11.00000     0.06988     0.12243 =
      0.23029     0.06895     0.08409     0.02767
AFIX 137
H31A  2   0.922752   0.349825   0.178222    11.00000    -1.50000
H31B  2   0.828077   0.232555   0.153902    11.00000    -1.50000
H31C  2   0.894652   0.292888   0.232687    11.00000    -1.50000
AFIX 0
C32   1   0.100792   0.097684   0.243202    11.00000     0.07533     0.13520 =
      0.08455     0.02080     0.01886     0.01670
AFIX 137
H32A  2   0.017975   0.070822   0.253767    11.00000    -1.50000
H32B  2   0.098317   0.171213   0.239919    11.00000    -1.50000
H32C  2   0.176537   0.101073   0.279217    11.00000    -1.50000
AFIX 0
C33   1  -0.035644  -0.002610   0.126569    11.00000     0.05355     0.15865 =
      0.12598     0.02268     0.00715    -0.00028
AFIX 137
H33A  2  -0.102085  -0.019772   0.151080    11.00000    -1.50000
H33B  2  -0.043956  -0.064342   0.084835    11.00000    -1.50000
H33C  2  -0.050305   0.063555   0.115140    11.00000    -1.50000
AFIX 0
C34   1   1.057899   0.936371   0.406120    11.00000     0.17331     0.09017 =
      0.15070     0.00407     0.00102     0.03427
AFIX 43
H34   2   1.046849   1.011063   0.418197    11.00000    -1.20000
AFIX 0
C35   1   0.541747  -0.081102   0.394470    11.00000     0.18052     0.07118 =
      0.09889     0.04726     0.00793     0.02390
AFIX 137
H35A  2   0.527834  -0.159886   0.388079    11.00000    -1.50000
H35B  2   0.487373  -0.044770   0.424898    11.00000    -1.50000
H35C  2   0.635939  -0.049456   0.414377    11.00000    -1.50000
AFIX 0
C36   1   0.773296   0.474799   0.249377    11.00000     0.21232     0.08070 =
      0.20078    -0.02680     0.12462    -0.06572
AFIX 137
H36A  2   0.843874   0.516967   0.237534    11.00000    -1.50000
H36B  2   0.805183   0.470718   0.294733    11.00000    -1.50000
H36C  2   0.695178   0.511096   0.248978    11.00000    -1.50000
AFIX 0
C37   1   0.639244  -0.259431   0.047232    11.00000     0.15124     0.11863 =
      0.10873     0.00508     0.05407     0.04569
AFIX 137
H37A  2   0.665198  -0.330531   0.027206    11.00000    -1.50000
H37B  2   0.712455  -0.200137   0.053483    11.00000    -1.50000
H37C  2   0.560140  -0.252026   0.016978    11.00000    -1.50000
AFIX 0
C38   1   0.676920   0.370142   0.127024    11.00000     0.12311     0.13597 =
      0.13943     0.07839     0.02818    -0.01356
AFIX 137
H38A  2   0.745312   0.411892   0.113588    11.00000    -1.50000
H38B  2   0.600298   0.408058   0.129818    11.00000    -1.50000
H38C  2   0.648547   0.296463   0.093299    11.00000    -1.50000
AFIX 0
C39   1   1.149807   0.902210   0.448628    11.00000     0.18880     0.13562 =
      0.09842     0.01929    -0.02515    -0.00798
AFIX 43
H39   2   1.201058   0.954440   0.489807    11.00000    -1.20000
AFIX 0
C40   1   1.001765   0.750722   0.329725    11.00000     0.15645     0.09181 =
      0.16894    -0.00003    -0.01654     0.02176
AFIX 43
H40   2   0.950285   0.698709   0.288524    11.00000    -1.20000
AFIX 0
C41   1   0.483652  -0.346063   0.103907    11.00000     0.17775     0.04873 =
      0.25299     0.04124     0.09747     0.02812
AFIX 137
H41A  2   0.506859  -0.418758   0.085257    11.00000    -1.50000
H41B  2   0.407341  -0.337463   0.072420    11.00000    -1.50000
H41C  2   0.460598  -0.338841   0.147657    11.00000    -1.50000
AFIX 0
C42   1   0.982774   0.859986   0.345974    11.00000     0.18373     0.10914 =
      0.17129     0.00505    -0.02189     0.05032
AFIX 43
H42   2   0.919598   0.881562   0.316387    11.00000    -1.20000
AFIX 0
C43   1   1.168238   0.791995   0.431812    11.00000     0.16047     0.23329 =
      0.16756     0.13581     0.03521     0.07660
AFIX 43
H43   2   1.231343   0.770186   0.461302    11.00000    -1.20000
AFIX 0
C44   1   0.722444  -0.264548   0.165468    11.00000     0.18891     0.10455 =
      0.13501     0.02493    -0.00113     0.08723
AFIX 137
H44A  2   0.749084  -0.336048   0.147500    11.00000    -1.50000
H44B  2   0.694166  -0.259455   0.207790    11.00000    -1.50000
H44C  2   0.798038  -0.205829   0.174309    11.00000    -1.50000
AFIX 0
HKLF 4
END
