TITL CrystalPilot n0034 in P -1
REM CrystalPilot node n0034 tool=set_restraints
CELL 0.71073 10.15540 12.70750 20.80080 107.6910 100.3150 96.2330
ZERR 2 0.00170 0.00210 0.00440 0.0030 0.0030 0.0020
LATT 1
SFAC C H N P Ni La
UNIT 88.0 110.0 16.0 4.0 2.0 2.0

DFIX 1.3900 0.020 C28 C40
DFIX 1.3900 0.020 C40 C42
DFIX 1.3900 0.020 C42 C34
DFIX 1.3900 0.020 C34 C39
DFIX 1.3900 0.020 C39 C43
DFIX 1.3900 0.020 C43 C28
FLAT 0.02 C28 C40 C42 C34 C39 C43

WGHT 0.103410 10.855881
FVAR 0.18907
LA1   6   0.429126   0.291516   0.269805    11.00000     0.04336     0.03295 =
      0.04287     0.00574     0.00739     0.00967
NI1   5   0.466901   0.070234   0.207494    11.00000     0.04984     0.03164 =
      0.04628     0.00537     0.01026     0.01103
P1    4   0.260802   0.052323   0.145763    11.00000     0.05163     0.03251 =
      0.04675     0.00297     0.00508     0.00677
P2    4   0.511752   0.071663   0.314987    11.00000     0.05985     0.03555 =
      0.04873     0.00981     0.00950     0.01467
N1    3   0.252195   0.280828   0.169693    11.00000     0.05650     0.03285 =
      0.04690     0.00718     0.00343     0.01085
N2    3   0.382811   0.246787   0.375494    11.00000     0.06386     0.04046 =
      0.04789     0.01010     0.01643     0.01548
N3    3   0.627214   0.295761   0.216867    11.00000     0.04631     0.04293 =
      0.05381     0.00957     0.00959     0.00259
C1    1   0.294803   0.493809   0.270037    11.00000     0.05546     0.03417 =
      0.04930     0.00688     0.00456     0.01177
N4    3   0.116740   0.347944   0.082340    11.00000     0.08589     0.06238 =
      0.05219     0.01517     0.00373     0.01274
N5    3   0.244899   0.448857   0.315889    11.00000     0.06932     0.05407 =
      0.05419     0.00760     0.00625     0.02195
N6    3   0.328250   0.458201   0.380188    11.00000     0.06971     0.04586 =
      0.05209     0.00340     0.00866     0.01917
C2    1   0.194800   0.362823   0.149785    11.00000     0.05398     0.03839 =
      0.04555     0.01344     0.00607     0.00996
C3    1   0.569951  -0.143727   0.142644    11.00000     0.08542     0.03419 =
      0.05624     0.00550     0.02104     0.02780
N7    3   0.212224   0.472729   0.199372    11.00000     0.06079     0.04847 =
      0.05692     0.01188     0.00731     0.00750
C4    1   0.593630   0.187170   0.192553    11.00000     0.05132     0.04683 =
      0.05774     0.01333     0.01412     0.01244
C5    1   0.429637   0.551418   0.288969    11.00000     0.06174     0.03895 =
      0.06493     0.01294     0.00572     0.00542
C6    1   0.274353   0.401951   0.425794    11.00000     0.06280     0.04964 =
      0.04212     0.00526     0.00648     0.01874
C7    1   0.219308   0.170849   0.115068    11.00000     0.07535     0.03982 =
      0.05009     0.00465    -0.00416     0.01449
C8    1   0.153889   0.557909   0.182824    11.00000     0.08396     0.04011 =
      0.06162     0.01483     0.00482     0.01560
AFIX 43
H8    2   0.166454   0.627968   0.216561    11.00000    -1.20000
AFIX 0
N8    3   0.529721  -0.061339   0.166124    11.00000     0.07149     0.06058 =
      0.06535     0.01816     0.01329     0.01290
C9    1   0.194141   0.450609   0.469675    11.00000     0.07265     0.07086 =
      0.04996     0.00511     0.01701     0.02894
AFIX 43
H9    2   0.172488   0.520132   0.470340    11.00000    -1.20000
AFIX 0
C10   1   0.460644   0.514882   0.397230    11.00000     0.06615     0.04318 =
      0.05178     0.00166    -0.00292     0.00817
C11   1   0.735843   0.360516   0.198415    11.00000     0.05835     0.04907 =
      0.08427     0.01687     0.02985     0.00152
C12   1   0.059576   0.434760   0.067509    11.00000     0.10217     0.06029 =
      0.05047     0.02354    -0.00677     0.01007
AFIX 43
H12   2   0.008068   0.421567   0.023221    11.00000    -1.20000
AFIX 0
C13   1   0.309911   0.295136   0.421829    11.00000     0.06372     0.04510 =
      0.04439     0.00705     0.01233     0.01123
C14   1   0.176448   0.296677   0.511548    11.00000     0.08489     0.08087 =
      0.05926     0.01312     0.02651     0.01221
AFIX 43
H14   2   0.143224   0.260997   0.539812    11.00000    -1.20000
AFIX 0
C15   1   0.690108   0.134591   0.364993    11.00000     0.06516     0.05771 =
      0.06184     0.02018    -0.00195     0.01151
C16   1   0.105220   0.016521   0.177328    11.00000     0.04567     0.08431 =
      0.08847     0.02739     0.00834    -0.00270
C17   1   0.514278   0.561791   0.353216    11.00000     0.06665     0.04517 =
      0.06349     0.00801    -0.00169    -0.00252
C18   1   0.717322   0.263157   0.386692    11.00000     0.07022     0.06942 =
      0.07494     0.01697     0.00330     0.00447
AFIX 137
H18A  2   0.809698   0.291290   0.412064    11.00000    -1.50000
H18B  2   0.656939   0.293155   0.415405    11.00000    -1.50000
H18C  2   0.702341   0.285396   0.346171    11.00000    -1.50000
AFIX 0
C19   1   0.415902   0.138828   0.381137    11.00000     0.07962     0.04628 =
      0.04943     0.01590     0.01944     0.02138
C20   1   0.076633   0.540362   0.116419    11.00000     0.11345     0.05244 =
      0.06138     0.02283    -0.00076     0.02989
AFIX 43
H20   2   0.038055   0.597604   0.105481    11.00000    -1.20000
AFIX 0
C21   1   0.257984   0.244932   0.468384    11.00000     0.08382     0.06120 =
      0.05262     0.01731     0.02414     0.01524
AFIX 43
H21   2   0.279705   0.176172   0.469490    11.00000    -1.20000
AFIX 0
C22   1   0.220584  -0.056066   0.057370    11.00000     0.08437     0.04868 =
      0.05616    -0.00402    -0.00555     0.01359
C23   1   0.144749   0.399098   0.512850    11.00000     0.07576     0.09551 =
      0.06069     0.01551     0.02936     0.03413
AFIX 43
H23   2   0.091207   0.433615   0.542041    11.00000    -1.20000
AFIX 0
C24   1   0.497897  -0.073128   0.321781    11.00000     0.10601     0.04138 =
      0.07700     0.02422     0.01489     0.01964
C25   1   0.337055  -0.040221   0.019130    11.00000     0.11835     0.07677 =
      0.05914     0.00517     0.01937     0.03216
AFIX 137
H25A  2   0.315868  -0.095941  -0.026074    11.00000    -1.50000
H25B  2   0.421204  -0.048162   0.045260    11.00000    -1.50000
H25C  2   0.345457   0.033149   0.014774    11.00000    -1.50000
AFIX 0
C26   1   0.358771  -0.142292   0.283344    11.00000     0.10934     0.05126 =
      0.10105     0.02388     0.01580    -0.00811
AFIX 137
H26A  2   0.353806  -0.215781   0.287443    11.00000    -1.50000
H26B  2   0.344603  -0.148504   0.235354    11.00000    -1.50000
H26C  2   0.289964  -0.106309   0.302940    11.00000    -1.50000
AFIX 0
C27   1   0.608756  -0.252705   0.114496    11.00000     0.09708     0.04464 =
      0.08516     0.01105     0.03175     0.03853
C28   1   1.089630   0.716588   0.370429    11.00000     0.14288     0.08121 =
      0.11858     0.03515     0.03312     0.03893
AFIX 43
H28   2   1.096756   0.641012   0.357169    11.00000    -1.20000
AFIX 0
C29   1   0.790927   0.087698   0.322929    11.00000     0.06091     0.10995 =
      0.11457     0.03485     0.00871     0.03391
AFIX 137
H29A  2   0.881802   0.120642   0.349160    11.00000    -1.50000
H29B  2   0.776010   0.104991   0.280651    11.00000    -1.50000
H29C  2   0.778714   0.007812   0.312381    11.00000    -1.50000
AFIX 0
C30   1   0.196159  -0.175178   0.062120    11.00000     0.10613     0.04416 =
      0.09553    -0.00837    -0.01130     0.00704
AFIX 137
H30A  2   0.175747  -0.229442   0.016437    11.00000    -1.50000
H30B  2   0.121203  -0.182777   0.083645    11.00000    -1.50000
H30C  2   0.276329  -0.187428   0.089233    11.00000    -1.50000
AFIX 0
C31   1   0.855523   0.303606   0.189497    11.00000     0.07150     0.12395 =
      0.23217     0.07309     0.08616     0.02937
AFIX 137
H31A  2   0.922173   0.349543   0.177623    11.00000    -1.50000
H31B  2   0.827071   0.232451   0.153185    11.00000    -1.50000
H31C  2   0.894354   0.292194   0.231943    11.00000    -1.50000
AFIX 0
C32   1   0.100806   0.097484   0.243149    11.00000     0.07746     0.13343 =
      0.08477     0.02157     0.02067     0.01944
AFIX 137
H32A  2   0.019771   0.075554   0.256990    11.00000    -1.50000
H32B  2   0.100706   0.170253   0.238333    11.00000    -1.50000
H32C  2   0.179024   0.100140   0.277614    11.00000    -1.50000
AFIX 0
C33   1  -0.035514  -0.002503   0.126660    11.00000     0.05272     0.15645 =
      0.12328     0.01803     0.00458    -0.00238
AFIX 137
H33A  2  -0.106831  -0.020133   0.148353    11.00000    -1.50000
H33B  2  -0.039944  -0.063485   0.085085    11.00000    -1.50000
H33C  2  -0.046214   0.064423   0.115418    11.00000    -1.50000
AFIX 0
C34   1   1.057081   0.932854   0.404663    11.00000     0.16478     0.08633 =
      0.14507     0.00108    -0.01081     0.03063
AFIX 43
H34   2   1.046049   1.007416   0.414783    11.00000    -1.20000
AFIX 0
C35   1   0.541945  -0.081241   0.394291    11.00000     0.17270     0.07156 =
      0.09732     0.04738     0.00492     0.02237
AFIX 137
H35A  2   0.530483  -0.158656   0.391400    11.00000    -1.50000
H35B  2   0.487183  -0.042800   0.423712    11.00000    -1.50000
H35C  2   0.635762  -0.047350   0.413184    11.00000    -1.50000
AFIX 0
C36   1   0.772571   0.474923   0.249061    11.00000     0.21510     0.08084 =
      0.21000    -0.03322     0.13353    -0.06846
AFIX 137
H36A  2   0.843075   0.517174   0.237222    11.00000    -1.50000
H36B  2   0.804347   0.471182   0.294512    11.00000    -1.50000
H36C  2   0.694208   0.510915   0.248430    11.00000    -1.50000
AFIX 0
C37   1   0.639458  -0.259284   0.046998    11.00000     0.14793     0.11972 =
      0.10304     0.00045     0.05171     0.04431
AFIX 137
H37A  2   0.665497  -0.330330   0.026928    11.00000    -1.50000
H37B  2   0.712596  -0.199915   0.053276    11.00000    -1.50000
H37C  2   0.560305  -0.251898   0.016768    11.00000    -1.50000
AFIX 0
C38   1   0.677341   0.370909   0.127525    11.00000     0.11797     0.13276 =
      0.13900     0.07762     0.02746    -0.01172
AFIX 137
H38A  2   0.745910   0.412710   0.114224    11.00000    -1.50000
H38B  2   0.600947   0.409074   0.130515    11.00000    -1.50000
H38C  2   0.648658   0.297429   0.093597    11.00000    -1.50000
AFIX 0
C39   1   1.145392   0.903022   0.447072    11.00000     0.18621     0.13988 =
      0.09571     0.01320    -0.02884    -0.01729
AFIX 43
H39   2   1.194842   0.955344   0.488658    11.00000    -1.20000
AFIX 0
C40   1   1.006289   0.752100   0.332376    11.00000     0.15652     0.09475 =
      0.15449     0.00111    -0.01790     0.01732
AFIX 43
H40   2   0.955876   0.701780   0.290317    11.00000    -1.20000
AFIX 0
C41   1   0.483248  -0.345926   0.104136    11.00000     0.17026     0.04918 =
      0.24812     0.04147     0.09238     0.02683
AFIX 137
H41A  2   0.506223  -0.418739   0.085584    11.00000    -1.50000
H41B  2   0.407024  -0.337295   0.072611    11.00000    -1.50000
H41C  2   0.460186  -0.338424   0.147913    11.00000    -1.50000
AFIX 0
C42   1   0.987660   0.859683   0.350295    11.00000     0.17059     0.10972 =
      0.16274     0.00773    -0.01611     0.04796
AFIX 43
H42   2   0.921559   0.880245   0.321585    11.00000    -1.20000
AFIX 0
C43   1   1.164737   0.786103   0.427834    11.00000     0.14542     0.26519 =
      0.17709     0.15796     0.02721     0.06911
AFIX 43
H43   2   1.228745   0.762513   0.455853    11.00000    -1.20000
AFIX 0
C44   1   0.722369  -0.264566   0.165195    11.00000     0.19219     0.10344 =
      0.13964     0.02829    -0.00117     0.08690
AFIX 137
H44A  2   0.748799  -0.336138   0.147173    11.00000    -1.50000
H44B  2   0.694443  -0.259345   0.207617    11.00000    -1.50000
H44C  2   0.797996  -0.205954   0.173876    11.00000    -1.50000
AFIX 0
HKLF 4
END
