TITL CrystalPilot n0169 in P -1
REM CrystalPilot node n0169 tool=run_shelxl
REM R1 = 0.0647 wR2 = 0.1993 GooF = 0.951
CELL 0.71073 10.15540 12.70750 20.80080 107.6910 100.3150 96.2330
ZERR 2 0.00170 0.00210 0.00440 0.0030 0.0030 0.0020
LATT 1
SFAC C H N P Ni La
UNIT 96.0 135.7 8.0 4.0 2.0 2.0

DFIX 1.3900 0.010 C28 C40
DFIX 1.3900 0.010 C40 C42
DFIX 1.3900 0.010 C42 C34
DFIX 1.3900 0.010 C34 C39
DFIX 1.3900 0.010 C39 C43
DFIX 1.3900 0.010 C43 C28
DFIX 1.3900 0.010 C28B C40B
DFIX 1.3900 0.010 C40B C42B
DFIX 1.3900 0.010 C42B C34B
DFIX 1.3900 0.010 C34B C39B
DFIX 1.3900 0.010 C39B C43B
DFIX 1.3900 0.010 C43B C28B
FLAT 0.01 C28 C40 C42 C34 C39 C43
FLAT 0.01 C28B C40B C42B C34B C39B C43B
SADI 0.020 P1 C22 P1 C16 P1 C22B P1 C16B
SADI 0.020 C22 C25 C22 C30 C16 C33 C16 C32 C22B C25B C22B C30B C16B C33B =
 C16B C32B
SIMU 0.010 0.020 P1 C22 C25 C30 C16 C33 C32 C22B C25B C30B C16B C33B C32B
SADI 0.020 C11 C36 C11 C38 C11 C31 C11 C36B C11 C38B C11 C31B
SIMU 0.010 0.020 C11 C36 C38 C31 C36B C38B C31B
SADI 0.020 C27 C44 C27 C37 C27 C41 C27 C44B C27 C37B C27 C41B
SIMU 0.010 0.020 C27 C44 C37 C41 C44B C37B C41B
SIMU 0.010 0.020 C28 C40 C42 C34 C39 C43 C28B C40B C42B C34B C39B C43B
DFIX 0.9800 0.020 C4 H0

WGHT 0.069430 14.286559
FVAR 0.18977 0.86604 0.77796 0.79795 0.71415
LA1   6   0.429133   0.291508   0.269794    11.00000     0.04354     0.03311 =
      0.04308     0.00579     0.00734     0.00978
NI1   5   0.466918   0.070241   0.207488    11.00000     0.04994     0.03179 =
      0.04647     0.00555     0.01019     0.01116
P1    4   0.260815   0.052356   0.145804    11.00000     0.05175     0.03296 =
      0.04699     0.00317     0.00491     0.00680
P2    4   0.511712   0.071656   0.315003    11.00000     0.06015     0.03565 =
      0.04892     0.00991     0.00961     0.01503
N1    3   0.251805   0.281036   0.169949    11.00000     0.05658     0.03241 =
      0.04724     0.00694     0.00325     0.01074
N2    3   0.383456   0.247099   0.375667    11.00000     0.06381     0.04141 =
      0.04768     0.01053     0.01620     0.01632
N3    3   0.627211   0.295545   0.216782    11.00000     0.04639     0.04386 =
      0.05369     0.01081     0.00944     0.00309
C1    1   0.294999   0.493774   0.270060    11.00000     0.05498     0.03429 =
      0.04892     0.00587     0.00376     0.01293
C45   1   0.116914   0.348920   0.082895    11.00000     0.07489     0.04728 =
      0.04100     0.00911     0.00330     0.01122
AFIX 43
H45   2   0.103599   0.279681   0.048293    11.00000    -1.20000
AFIX 0
C46   1   0.245532   0.449737   0.316192    11.00000     0.05311     0.04117 =
      0.04658     0.00522     0.00521     0.01521
AFIX 43
H46   2   0.155642   0.413590   0.304453    11.00000    -1.20000
AFIX 0
C47   1   0.327848   0.458328   0.380329    11.00000     0.05797     0.03541 =
      0.04150     0.00171     0.00772     0.01482
C2    1   0.194993   0.363017   0.149844    11.00000     0.05428     0.03783 =
      0.04556     0.01318     0.00512     0.00921
C3    1   0.570037  -0.144144   0.142756    11.00000     0.08306     0.03353 =
      0.05489     0.00549     0.02038     0.02639
C48   1   0.211756   0.472314   0.199096    11.00000     0.05161     0.03820 =
      0.04596     0.00904     0.00696     0.00596
C4    1   0.593681   0.188101   0.193076    11.00000     0.05126     0.04681 =
      0.05705     0.01288     0.01339     0.01353
C5    1   0.429229   0.550615   0.289252    11.00000     0.06314     0.03846 =
      0.06439     0.01425     0.00742     0.00426
AFIX 43
H5    2   0.463410   0.581745   0.259230    11.00000    -1.20000
AFIX 0
C6    1   0.274415   0.402052   0.425834    11.00000     0.06246     0.04939 =
      0.04212     0.00449     0.00603     0.01840
C7    1   0.219109   0.170785   0.115594    11.00000     0.07368     0.04032 =
      0.04919     0.00517    -0.00246     0.01411
AFIX 23
H7A   2   0.122724   0.155852   0.094617    11.00000    -1.20000
H7B   2   0.268000   0.173568   0.079965    11.00000    -1.20000
AFIX 0
C8    1   0.153885   0.557845   0.182610    11.00000     0.08116     0.04203 =
      0.06107     0.01535     0.00497     0.01648
AFIX 43
H8    2   0.166120   0.627867   0.216346    11.00000    -1.20000
AFIX 0
N4    3   0.529767  -0.061532   0.166156    11.00000     0.07282     0.06071 =
      0.06596     0.01778     0.01389     0.01298
C9    1   0.193682   0.450769   0.469678    11.00000     0.07160     0.06964 =
      0.05067     0.00477     0.01668     0.02882
AFIX 43
H9    2   0.171543   0.520028   0.470022    11.00000    -1.20000
AFIX 0
C10   1   0.459774   0.515176   0.396915    11.00000     0.06821     0.04616 =
      0.04809     0.00092    -0.00445     0.00950
AFIX 43
H10   2   0.514969   0.522605   0.439413    11.00000    -1.20000
AFIX 0
C11   1   0.735832   0.360471   0.198435    11.00000     0.06288     0.05141 =
      0.09315     0.02095     0.03397     0.00262
C12   1   0.060125   0.435166   0.067676    11.00000     0.10166     0.06183 =
      0.05194     0.02460    -0.00702     0.01133
AFIX 43
H12   2   0.008574   0.421746   0.023367    11.00000    -1.20000
AFIX 0
C13   1   0.309948   0.295045   0.422084    11.00000     0.06229     0.04515 =
      0.04403     0.00712     0.01199     0.01166
C14   1   0.176333   0.296564   0.511398    11.00000     0.08236     0.08405 =
      0.05669     0.01313     0.02442     0.01144
AFIX 43
H14   2   0.142502   0.260422   0.539298    11.00000    -1.20000
AFIX 0
C15   1   0.690149   0.135289   0.364916    11.00000     0.06753     0.05866 =
      0.06070     0.02244    -0.00281     0.01064
AFIX 13
H15   2   0.703178   0.115740   0.407440    11.00000    -1.20000
AFIX 0
PART 1
C16   1   0.106806   0.017053   0.177975    21.00000     0.04958     0.07120 =
      0.07054     0.02068     0.00266    -0.00221
AFIX 13
H16   2   0.120073  -0.055718   0.182693    21.00000    -1.20000
AFIX 0
PART 0
C17   1   0.513016   0.561370   0.353054    11.00000     0.06556     0.04414 =
      0.06523     0.00809    -0.00321    -0.00445
AFIX 43
H17   2   0.602437   0.598783   0.365530    11.00000    -1.20000
AFIX 0
C18   1   0.715489   0.264197   0.386638    11.00000     0.07604     0.06818 =
      0.07288     0.01650     0.00258     0.00008
AFIX 137
H18A  2   0.807757   0.293184   0.411969    11.00000    -1.50000
H18B  2   0.654821   0.293416   0.415382    11.00000    -1.50000
H18C  2   0.699689   0.286364   0.346106    11.00000    -1.50000
AFIX 0
C19   1   0.416176   0.139235   0.380805    11.00000     0.07755     0.04725 =
      0.04790     0.01520     0.01829     0.01912
AFIX 23
H19A  2   0.470015   0.151586   0.426777    11.00000    -1.20000
H19B  2   0.332562   0.088826   0.374654    11.00000    -1.20000
AFIX 0
C20   1   0.077601   0.539986   0.116037    11.00000     0.10954     0.05383 =
      0.06178     0.02358     0.00012     0.02883
AFIX 43
H20   2   0.039823   0.597352   0.104832    11.00000    -1.20000
AFIX 0
C21   1   0.258240   0.245687   0.468487    11.00000     0.08262     0.06034 =
      0.05254     0.01652     0.02270     0.01464
AFIX 43
H21   2   0.280473   0.177167   0.469808    11.00000    -1.20000
AFIX 0
PART 1
C22   1   0.218222  -0.057569   0.057743    21.00000     0.06840     0.04610 =
      0.05595    -0.00331    -0.00501     0.00821
AFIX 13
H22   2   0.132950  -0.049266   0.030620    21.00000    -1.20000
AFIX 0
PART 0
C23   1   0.144903   0.400059   0.512914    11.00000     0.07730     0.09284 =
      0.06037     0.01469     0.02912     0.03457
AFIX 43
H23   2   0.092048   0.434983   0.542377    11.00000    -1.20000
AFIX 0
C24   1   0.496343  -0.073157   0.322281    11.00000     0.10236     0.04236 =
      0.07762     0.02244     0.02135     0.02327
AFIX 13
H24   2   0.566009  -0.105550   0.299443    11.00000    -1.20000
AFIX 0
PART 1
C25   1   0.331351  -0.041499   0.018038    21.00000     0.08714     0.06506 =
      0.05593    -0.00160     0.00673     0.01864
AFIX 137
H25A  2   0.309153  -0.097872  -0.026948    21.00000    -1.50000
H25B  2   0.416895  -0.048209   0.043522    21.00000    -1.50000
H25C  2   0.337602   0.031470   0.013113    21.00000    -1.50000
AFIX 0
PART 0
C26   1   0.359821  -0.142275   0.284032    11.00000     0.10579     0.05228 =
      0.10367     0.02504     0.01816    -0.00545
AFIX 137
H26A  2   0.355118  -0.215386   0.288694    11.00000    -1.50000
H26B  2   0.346536  -0.149344   0.235935    11.00000    -1.50000
H26C  2   0.290288  -0.106405   0.302947    11.00000    -1.50000
AFIX 0
C27   1   0.606774  -0.253622   0.114267    11.00000     0.10570     0.04670 =
      0.09011     0.01462     0.03603     0.04291
PART 1
C28   1   1.095646   0.715337   0.372705    51.00000     0.13015     0.08590 =
      0.10286     0.02196     0.01097     0.03472
AFIX 43
H28   2   1.109670   0.641448   0.362063    51.00000    -1.20000
AFIX 0
PART 0
C29   1   0.791998   0.087219   0.322792    11.00000     0.06222     0.10432 =
      0.10868     0.02887     0.01005     0.03392
AFIX 137
H29A  2   0.882835   0.120508   0.348950    11.00000    -1.50000
H29B  2   0.777069   0.103573   0.280203    11.00000    -1.50000
H29C  2   0.779910   0.007455   0.312827    11.00000    -1.50000
AFIX 0
PART 1
C30   1   0.194624  -0.176349   0.063888    21.00000     0.09971     0.04819 =
      0.08262    -0.00592    -0.00503     0.00597
AFIX 137
H30A  2   0.172971  -0.231582   0.018504    21.00000    -1.50000
H30B  2   0.120727  -0.183032   0.086237    21.00000    -1.50000
H30C  2   0.275556  -0.188011   0.090729    21.00000    -1.50000
AFIX 0
C31   1   0.862693   0.307633   0.196048    31.00000     0.06071     0.09911 =
      0.13949     0.02806     0.04206     0.00721
AFIX 137
H31A  2   0.929355   0.353202   0.183941    31.00000    -1.50000
H31B  2   0.840170   0.233992   0.162046    31.00000    -1.50000
H31C  2   0.898796   0.302284   0.240647    31.00000    -1.50000
AFIX 0
C32   1   0.101175   0.101545   0.244948    21.00000     0.06168     0.09459 =
      0.07574     0.01345     0.01434     0.00862
AFIX 137
H32A  2   0.020515   0.079449   0.259031    21.00000    -1.50000
H32B  2   0.099653   0.173564   0.239164    21.00000    -1.50000
H32C  2   0.179736   0.105944   0.279708    21.00000    -1.50000
AFIX 0
C33   1  -0.034103   0.000380   0.128296    21.00000     0.05420     0.11306 =
      0.09907     0.00624     0.00513    -0.00314
AFIX 137
H33A  2  -0.105069  -0.017283   0.150186    21.00000    -1.50000
H33B  2  -0.039930  -0.059953   0.086201    21.00000    -1.50000
H33C  2  -0.044051   0.068113   0.117920    21.00000    -1.50000
AFIX 0
C34   1   1.054544   0.936587   0.404763    51.00000     0.13277     0.08593 =
      0.10625     0.01046    -0.00910     0.03810
AFIX 43
H34   2   1.040597   1.010486   0.415279    51.00000    -1.20000
AFIX 0
PART 0
C35   1   0.539014  -0.081089   0.393818    11.00000     0.18050     0.07361 =
      0.09906     0.05081     0.00913     0.02581
AFIX 137
H35A  2   0.526701  -0.158467   0.391003    11.00000    -1.50000
H35B  2   0.484470  -0.042088   0.423151    11.00000    -1.50000
H35C  2   0.632989  -0.047753   0.412762    11.00000    -1.50000
AFIX 0
PART 1
C36   1   0.766567   0.480354   0.247553    31.00000     0.11345     0.06481 =
      0.12368     0.01152     0.03850    -0.02034
AFIX 137
H36A  2   0.837055   0.522699   0.235760    31.00000    -1.50000
H36B  2   0.796027   0.480908   0.294177    31.00000    -1.50000
H36C  2   0.686080   0.513364   0.243822    31.00000    -1.50000
AFIX 0
C37   1   0.647497  -0.257447   0.048113    41.00000     0.11103     0.08659 =
      0.09864     0.00344     0.03448     0.02399
AFIX 137
H37A  2   0.672469  -0.328884   0.027871    41.00000    -1.50000
H37B  2   0.723536  -0.198907   0.057386    41.00000    -1.50000
H37C  2   0.572639  -0.247006   0.016596    41.00000    -1.50000
AFIX 0
C38   1   0.677961   0.368542   0.126315    31.00000     0.09976     0.08686 =
      0.09609     0.04052     0.02652    -0.00696
AFIX 137
H38A  2   0.746490   0.410398   0.113022    31.00000    -1.50000
H38B  2   0.600668   0.405745   0.128267    31.00000    -1.50000
H38C  2   0.650843   0.294487   0.092938    31.00000    -1.50000
AFIX 0
C39   1   1.143152   0.905675   0.451662    51.00000     0.13557     0.09227 =
      0.10193     0.01600    -0.00546     0.03624
AFIX 43
H39   2   1.189462   0.958064   0.493902    51.00000    -1.20000
AFIX 0
C40   1   1.008353   0.748878   0.327343    51.00000     0.12997     0.09046 =
      0.11060     0.01079     0.00293     0.03903
AFIX 43
H40   2   0.962259   0.696370   0.285103    51.00000    -1.20000
AFIX 0
C41   1   0.483011  -0.345696   0.099104    41.00000     0.13843     0.04793 =
      0.13447     0.01554     0.04001     0.01971
AFIX 137
H41A  2   0.507319  -0.417910   0.080308    41.00000    -1.50000
H41B  2   0.410236  -0.335588   0.066299    41.00000    -1.50000
H41C  2   0.454180  -0.341096   0.141235    41.00000    -1.50000
AFIX 0
C42   1   0.987192   0.858119   0.342679    51.00000     0.13591     0.09091 =
      0.10702     0.00871    -0.00424     0.03817
AFIX 43
H42   2   0.927435   0.878669   0.311060    51.00000    -1.20000
AFIX 0
C43   1   1.161262   0.795528   0.434392    51.00000     0.13468     0.09222 =
      0.10346     0.02348     0.00539     0.03514
AFIX 43
H43   2   1.220631   0.774586   0.465965    51.00000    -1.20000
AFIX 0
C44   1   0.715858  -0.265858   0.169273    41.00000     0.13928     0.08468 =
      0.11037     0.02795     0.01580     0.05519
AFIX 137
H44A  2   0.743407  -0.337327   0.152652    41.00000    -1.50000
H44B  2   0.681417  -0.260972   0.209970    41.00000    -1.50000
H44C  2   0.792531  -0.207103   0.180385    41.00000    -1.50000
AFIX 0
PART 2
C22B  1   0.261247  -0.044264   0.057357   -21.00000     0.06774     0.04422 =
      0.05335    -0.00022     0.00182     0.00684
AFIX 13
H22B  2   0.193445  -0.026135   0.024329   -21.00000    -1.20000
AFIX 0
C25B  1   0.390056  -0.022588   0.030033   -21.00000     0.07488     0.05273 =
      0.05044    -0.00477     0.00167     0.00687
AFIX 137
H1    2   0.380610  -0.075933  -0.015257   -21.00000    -1.50000
H2    2   0.468066  -0.030346   0.060844   -21.00000    -1.50000
H3    2   0.401425   0.051966   0.027556   -21.00000    -1.50000
AFIX 0
C30B  1   0.214533  -0.167380   0.051599   -21.00000     0.07293     0.04812 =
      0.05880    -0.00509     0.00599     0.00567
AFIX 137
H4    2   0.215134  -0.216015   0.006211   -21.00000    -1.50000
H6    2   0.124189  -0.176134   0.059333   -21.00000    -1.50000
H7    2   0.275278  -0.186416   0.085679   -21.00000    -1.50000
AFIX 0
C16B  1   0.087299   0.005883   0.156894   -21.00000     0.05291     0.06690 =
      0.06774     0.01249     0.00406     0.00212
C33B  1  -0.033498  -0.069438   0.098919   -21.00000     0.06040     0.09194 =
      0.08580     0.01401     0.00856     0.00198
AFIX 137
H11   2  -0.110656  -0.080622   0.118347   -21.00000    -1.50000
H13   2  -0.008889  -0.140613   0.077662   -21.00000    -1.50000
H18   2  -0.055977  -0.033861   0.064740   -21.00000    -1.50000
AFIX 0
C32B  1   0.098097  -0.009077   0.228353   -21.00000     0.05031     0.08462 =
      0.07466     0.01412     0.01062     0.00392
AFIX 137
H19   2   0.008969  -0.032885   0.233792   -21.00000    -1.50000
H25   2   0.138602   0.060963   0.264015   -21.00000    -1.50000
H26   2   0.153446  -0.064628   0.231762   -21.00000    -1.50000
AFIX 0
C36B  1   0.820466   0.440112   0.269054   -31.00000     0.08863     0.06680 =
      0.12165     0.01223     0.03537    -0.01773
AFIX 137
H27   2   0.894305   0.486104   0.262008   -31.00000    -1.50000
H29   2   0.855943   0.396841   0.296620   -31.00000    -1.50000
H30   2   0.763859   0.486989   0.292513   -31.00000    -1.50000
AFIX 0
C38B  1   0.672152   0.458915   0.187218   -31.00000     0.09620     0.07852 =
      0.11420     0.02875     0.03132    -0.00506
AFIX 137
H31   2   0.736067   0.506540   0.174906   -31.00000    -1.50000
H32   2   0.648574   0.501042   0.229088   -31.00000    -1.50000
H33   2   0.591823   0.430988   0.150615   -31.00000    -1.50000
AFIX 0
C31B  1   0.832662   0.288338   0.165912   -31.00000     0.04569     0.07199 =
      0.10252     0.00799     0.04544     0.00941
AFIX 137
H35   2   0.900939   0.334268   0.155016   -31.00000    -1.50000
H36   2   0.782746   0.230490   0.124308   -31.00000    -1.50000
H37   2   0.875305   0.254811   0.197922   -31.00000    -1.50000
AFIX 0
C44B  1   0.752941  -0.255397   0.144814   -41.00000     0.12011     0.07202 =
      0.10169     0.02272     0.02847     0.05140
AFIX 137
H38   2   0.773651  -0.328655   0.124925   -41.00000    -1.50000
H41   2   0.766064  -0.237714   0.194043   -41.00000    -1.50000
H44   2   0.811919  -0.200949   0.134870   -41.00000    -1.50000
AFIX 0
C37B  1   0.580498  -0.288129   0.036562   -41.00000     0.11118     0.06852 =
      0.09326     0.00045     0.03834     0.03242
AFIX 137
H47   2   0.605170  -0.360414   0.018507   -41.00000    -1.50000
H48   2   0.633760  -0.234079   0.023580   -41.00000    -1.50000
H49   2   0.485804  -0.291903   0.018038   -41.00000    -1.50000
AFIX 0
C41B  1   0.522831  -0.327477   0.142108   -41.00000     0.13617     0.05235 =
      0.11284     0.02778     0.02951     0.03648
AFIX 137
H50   2   0.540290  -0.402719   0.125900   -41.00000    -1.50000
H51   2   0.428132  -0.327072   0.126342   -41.00000    -1.50000
H52   2   0.546659  -0.299633   0.191797   -41.00000    -1.50000
AFIX 0
C28B  1   1.179566   0.746664   0.407083   -51.00000     0.13274     0.08607 =
      0.10037     0.02038     0.00828     0.03299
AFIX 43
H28B  2   1.239403   0.698570   0.413851   -51.00000    -1.20000
AFIX 0
C43B  1   1.207443   0.860807   0.444821   -51.00000     0.13575     0.08991 =
      0.10153     0.01695     0.00484     0.03311
AFIX 43
H43B  2   1.287309   0.893205   0.478393   -51.00000    -1.20000
AFIX 0
C39B  1   1.110188   0.923878   0.429881   -51.00000     0.13592     0.09060 =
      0.10585     0.01488    -0.00118     0.03547
AFIX 43
H39B  2   1.125754   1.000406   0.454107   -51.00000    -1.20000
AFIX 0
C34B  1   0.990600   0.876535   0.380028   -51.00000     0.13533     0.09130 =
      0.10666     0.01350    -0.00156     0.03737
AFIX 43
H34B  2   0.930090   0.923913   0.372806   -51.00000    -1.20000
AFIX 0
C42B  1   0.954283   0.764272   0.340184   -51.00000     0.13441     0.09220 =
      0.10766     0.01287     0.00376     0.03582
AFIX 43
H42B  2   0.874490   0.731412   0.306635   -51.00000    -1.20000
AFIX 0
C40B  1   1.057442   0.709578   0.359016   -51.00000     0.13123     0.08696 =
      0.10275     0.01984     0.00603     0.03552
AFIX 43
H40B  2   1.041438   0.633107   0.334593   -51.00000    -1.20000
AFIX 0
PART 0
HKLF 4
END
