TITL CrystalPilot n0127 in P -1
REM CrystalPilot node n0127 tool=edit_atoms
REM R1 = 0.0671 wR2 = 0.2144 GooF = 0.973
CELL 0.71073 10.15540 12.70750 20.80080 107.6910 100.3150 96.2330
ZERR 2 0.00170 0.00210 0.00440 0.0030 0.0030 0.0020
LATT 1
SFAC C H N Si P
UNIT 96.0 105.5 8.0 4.0 4.0

DFIX 1.3900 0.010 C28 C40
DFIX 1.3900 0.010 C40 C42
DFIX 1.3900 0.010 C42 C34
DFIX 1.3900 0.010 C34 C39
DFIX 1.3900 0.010 C39 C43
DFIX 1.3900 0.010 C43 C28
DFIX 1.3900 0.010 C28B C40B
DFIX 1.3900 0.010 C40B C42B
DFIX 1.3900 0.010 C42B C34B
DFIX 1.3900 0.010 C34B C39B
DFIX 1.3900 0.010 C39B C43B
DFIX 1.3900 0.010 C43B C28B
FLAT 0.01 C28 C40 C42 C34 C39 C43
FLAT 0.01 C28B C40B C42B C34B C39B C43B
SADI 0.020 P1 C22 P1 C16 P1 C22B P1 C16B
SADI 0.020 C22 C25 C22 C30 C16 C33 C16 C32 C22B C25B C22B C30B C16B C33B =
 C16B C32B
SIMU 0.010 0.020 P1 C22 C25 C30 C16 C33 C32 C22B C25B C30B C16B C33B C32B
SADI 0.020 C11 C36 C11 C38 C11 C31 C11 C36B C11 C38B C11 C31B
SIMU 0.010 0.020 C11 C36 C38 C31 C36B C38B C31B
SADI 0.020 C27 C44 C27 C37 C27 C41 C27 C44B C27 C37B C27 C41B
SIMU 0.010 0.020 C27 C44 C37 C41 C44B C37B C41B
SIMU 0.010 0.020 C28 C40 C42 C34 C39 C43 C28B C40B C42B C34B C39B C43B

WGHT 0.092580 12.699161
FVAR 0.19023 0.85330 0.79991 0.80065 0.71094
LA1   4   0.429119   0.291514   0.269796    11.00000     0.04365     0.03324 =
      0.04320     0.00582     0.00741     0.00978
NI1   4   0.466919   0.070225   0.207486    11.00000     0.05007     0.03193 =
      0.04660     0.00554     0.01028     0.01116
P1    5   0.232262   0.045208   0.137037    11.00000     0.05182     0.03328 =
      0.04728     0.00321     0.00496     0.00677
P2    5   0.516559   0.070212   0.323729    11.00000     0.06049     0.03575 =
      0.04886     0.00978     0.00959     0.01503
N1    3   0.251738   0.280939   0.170090    11.00000     0.05606     0.03295 =
      0.04749     0.00715     0.00328     0.01026
N2    3   0.383315   0.247269   0.375588    11.00000     0.06505     0.04161 =
      0.04714     0.01026     0.01645     0.01655
N3    3   0.627762   0.295511   0.216723    11.00000     0.04652     0.04397 =
      0.05406     0.01080     0.00963     0.00354
C1    1   0.295002   0.493866   0.270084    11.00000     0.05454     0.03483 =
      0.04947     0.00571     0.00285     0.01255
C45   1   0.116566   0.349147   0.083038    11.00000     0.07473     0.04758 =
      0.04126     0.00839     0.00324     0.01132
AFIX 43
H45   2   0.103065   0.279856   0.048465    11.00000    -1.20000
AFIX 0
C46   1   0.245515   0.449448   0.316205    11.00000     0.05341     0.04215 =
      0.04622     0.00504     0.00523     0.01511
C47   1   0.328075   0.457893   0.380302    11.00000     0.05734     0.03551 =
      0.04221     0.00179     0.00726     0.01434
C2    1   0.194797   0.362945   0.149857    11.00000     0.05463     0.03767 =
      0.04599     0.01308     0.00552     0.00920
C3    1   0.569458  -0.144074   0.142573    11.00000     0.08385     0.03286 =
      0.05583     0.00542     0.02020     0.02652
C48   1   0.211793   0.472459   0.199001    11.00000     0.05212     0.03853 =
      0.04582     0.00906     0.00721     0.00584
C4    1   0.594320   0.187903   0.192734    11.00000     0.05227     0.04615 =
      0.05679     0.01246     0.01255     0.01260
C5    1   0.429572   0.550752   0.289131    11.00000     0.06319     0.03792 =
      0.06512     0.01368     0.00734     0.00412
C6    1   0.274578   0.402122   0.425781    11.00000     0.06359     0.04876 =
      0.04202     0.00477     0.00587     0.01879
C7    1   0.220124   0.170886   0.115513    11.00000     0.07283     0.03993 =
      0.05035     0.00527    -0.00280     0.01385
C8    1   0.153509   0.558013   0.182646    11.00000     0.08187     0.04209 =
      0.06155     0.01619     0.00488     0.01647
AFIX 43
H8    2   0.165399   0.627993   0.216383    11.00000    -1.20000
AFIX 0
N4    3   0.529913  -0.061703   0.166078    11.00000     0.07204     0.06098 =
      0.06705     0.01836     0.01522     0.01303
C9    1   0.193797   0.450520   0.469661    11.00000     0.07321     0.06987 =
      0.05060     0.00554     0.01667     0.02989
AFIX 43
H9    2   0.171524   0.519706   0.469919    11.00000    -1.20000
AFIX 0
C10   1   0.460197   0.514647   0.396915    11.00000     0.06882     0.04554 =
      0.04947     0.00077    -0.00493     0.01018
C11   1   0.735663   0.360035   0.198337    11.00000     0.06266     0.05139 =
      0.09426     0.02084     0.03560     0.00320
C12   1   0.059783   0.435182   0.067615    11.00000     0.08203     0.04698 =
      0.03907     0.01910    -0.00578     0.00962
AFIX 43
H12   2   0.008385   0.421810   0.023280    10.78356    -1.20000
AFIX 0
C13   1   0.309775   0.295226   0.421948    11.00000     0.06210     0.04612 =
      0.04362     0.00672     0.01182     0.01188
C14   1   0.176779   0.296456   0.511206    11.00000     0.08166     0.08362 =
      0.05729     0.01362     0.02407     0.01182
AFIX 43
H14   2   0.142952   0.260098   0.539005    11.00000    -1.20000
AFIX 0
C15   1   0.690683   0.135092   0.364723    11.00000     0.06806     0.05893 =
      0.06075     0.02271    -0.00256     0.01069
PART 1
C16   1   0.106413   0.017188   0.177877    21.00000     0.04925     0.06937 =
      0.06802     0.01764     0.00340    -0.00357
PART 0
C17   1   0.513423   0.560965   0.353036    11.00000     0.06594     0.04436 =
      0.06486     0.00735    -0.00284    -0.00492
C18   1   0.715693   0.263575   0.386687    11.00000     0.05830     0.05433 =
      0.05833     0.01213     0.00164    -0.00091
AFIX 137
H18A  2   0.808044   0.292565   0.411885    10.78356    -1.50000
H18B  2   0.655227   0.292496   0.415634    10.78356    -1.50000
H18C  2   0.699457   0.286057   0.346285    10.78356    -1.50000
AFIX 0
C19   1   0.415771   0.139202   0.380750    11.00000     0.07710     0.04834 =
      0.04941     0.01605     0.01826     0.01878
C20   1   0.077375   0.539736   0.116070    11.00000     0.10956     0.05435 =
      0.06242     0.02436    -0.00017     0.02830
AFIX 43
H20   2   0.039515   0.597062   0.104855    11.00000    -1.20000
AFIX 0
C21   1   0.258480   0.245836   0.468448    11.00000     0.06750     0.04615 =
      0.03896     0.01141     0.01984     0.01082
AFIX 43
H21   2   0.281016   0.177431   0.469836    10.78356    -1.20000
AFIX 0
PART 1
C22   1   0.217744  -0.057743   0.057742    21.00000     0.06571     0.04675 =
      0.05622    -0.00337    -0.00349     0.00687
PART 0
C23   1   0.144998   0.400314   0.513013    11.00000     0.07615     0.09234 =
      0.06250     0.01508     0.02978     0.03255
AFIX 43
H23   2   0.092313   0.435290   0.542559    11.00000    -1.20000
AFIX 0
C24   1   0.496369  -0.072956   0.322244    11.00000     0.07654     0.02581 =
      0.05609     0.01502     0.01490     0.01721
PART 1
C25   1   0.330394  -0.041896   0.018061    21.00000     0.08533     0.06511 =
      0.05504    -0.00207     0.00582     0.01856
AFIX 137
H25A  2   0.308050  -0.098305  -0.026914    21.00000    -1.50000
H25B  2   0.415957  -0.048657   0.043500    21.00000    -1.50000
H25C  2   0.336696   0.031055   0.013108    21.00000    -1.50000
AFIX 0
PART 0
C26   1   0.359015  -0.141849   0.283771    11.00000     0.08756     0.03856 =
      0.08196     0.01912     0.01393    -0.00597
AFIX 137
H26A  2   0.353852  -0.215067   0.288291    10.78356    -1.50000
H26B  2   0.345823  -0.148710   0.235707    10.78356    -1.50000
H26C  2   0.289694  -0.105746   0.302756    10.78356    -1.50000
AFIX 0
C27   1   0.606613  -0.253645   0.114436    11.00000     0.09667     0.03701 =
      0.07974     0.01132     0.03424     0.03965
PART 1
C28   1   1.095341   0.714363   0.372121    51.00000     0.12969     0.08488 =
      0.10376     0.02410     0.01152     0.03499
AFIX 43
H28   2   1.109333   0.640447   0.361188    51.00000    -1.20000
AFIX 0
PART 0
C29   1   0.792348   0.087683   0.322327    11.00000     0.04858     0.08488 =
      0.09030     0.02430     0.00830     0.02820
AFIX 137
H29A  2   0.883218   0.120926   0.348452    10.78356    -1.50000
H29B  2   0.777135   0.104545   0.279908    10.78356    -1.50000
H29C  2   0.780427   0.007856   0.312042    10.78356    -1.50000
AFIX 0
PART 1
C30   1   0.194399  -0.175968   0.063762    21.00000     0.09332     0.04870 =
      0.08266    -0.00528    -0.00421     0.00566
AFIX 137
H30A  2   0.172532  -0.231122   0.018347    21.00000    -1.50000
H30B  2   0.120679  -0.182701   0.086218    21.00000    -1.50000
H30C  2   0.275449  -0.187703   0.090470    21.00000    -1.50000
AFIX 0
C31   1   0.861225   0.305517   0.195358    31.00000     0.06438     0.09582 =
      0.13746     0.02715     0.04624     0.00919
AFIX 137
H31A  2   0.928482   0.350495   0.183221    31.00000    -1.50000
H31B  2   0.837397   0.232051   0.161173    31.00000    -1.50000
H31C  2   0.897212   0.299524   0.239795    31.00000    -1.50000
AFIX 0
C32   1   0.101746   0.102239   0.244884    21.00000     0.06127     0.09762 =
      0.07433     0.01316     0.01516     0.00800
AFIX 137
H32A  2   0.021159   0.080731   0.259213    21.00000    -1.50000
H32B  2   0.100665   0.174201   0.238967    21.00000    -1.50000
H32C  2   0.180415   0.106433   0.279526    21.00000    -1.50000
AFIX 0
C33   1  -0.033581  -0.002315   0.127088    21.00000     0.05177     0.11029 =
      0.09999     0.01030     0.00409    -0.00340
AFIX 137
H33A  2  -0.105102  -0.019663   0.148736    21.00000    -1.50000
H33B  2  -0.037708  -0.063627   0.085726    21.00000    -1.50000
H33C  2  -0.044232   0.064322   0.115493    21.00000    -1.50000
AFIX 0
C34   1   1.054430   0.937370   0.405610    51.00000     0.13244     0.08559 =
      0.10759     0.01273    -0.00688     0.03615
AFIX 43
H34   2   1.040586   1.011319   0.416465    51.00000    -1.20000
AFIX 0
PART 0
C35   1   0.537993  -0.081449   0.393565    11.00000     0.13251     0.05195 =
      0.07245     0.03840     0.00541     0.01831
AFIX 137
H35A  2   0.525597  -0.158935   0.390509    10.71849    -1.50000
H35B  2   0.483006  -0.042740   0.422738    10.71849    -1.50000
H35C  2   0.631875  -0.048079   0.412854    10.71849    -1.50000
AFIX 0
PART 1
C36   1   0.767805   0.479133   0.248097    31.00000     0.11065     0.06581 =
      0.12786     0.01034     0.04306    -0.01992
AFIX 137
H36A  2   0.838191   0.521573   0.236297    31.00000    -1.50000
H36B  2   0.797919   0.478656   0.294451    31.00000    -1.50000
H36C  2   0.687704   0.512756   0.245123    31.00000    -1.50000
AFIX 0
C37   1   0.647916  -0.256074   0.048485    41.00000     0.11125     0.08809 =
      0.09830     0.00223     0.03055     0.02064
AFIX 137
H37A  2   0.673426  -0.327171   0.027966    41.00000    -1.50000
H37B  2   0.723703  -0.197117   0.058197    41.00000    -1.50000
H37C  2   0.573099  -0.245492   0.017008    41.00000    -1.50000
AFIX 0
C38   1   0.677519   0.367364   0.126410    31.00000     0.09613     0.08597 =
      0.09777     0.03766     0.02879    -0.00459
AFIX 137
H38A  2   0.745747   0.409138   0.112891    31.00000    -1.50000
H38B  2   0.600070   0.404379   0.128315    31.00000    -1.50000
H38C  2   0.650528   0.293140   0.093228    31.00000    -1.50000
AFIX 0
C39   1   1.143403   0.904695   0.451491    51.00000     0.13510     0.09120 =
      0.10474     0.01777    -0.00322     0.03523
AFIX 43
H39   2   1.190395   0.956509   0.493797    51.00000    -1.20000
AFIX 0
C40   1   1.007316   0.748382   0.327242    51.00000     0.12974     0.08956 =
      0.11089     0.01285     0.00361     0.03843
AFIX 43
H40   2   0.960547   0.696340   0.284970    51.00000    -1.20000
AFIX 0
C41   1   0.484342  -0.346809   0.099726    41.00000     0.13140     0.04597 =
      0.13972     0.01231     0.03598     0.01723
AFIX 137
H41A  2   0.509865  -0.418615   0.081217    41.00000    -1.50000
H41B  2   0.410858  -0.337835   0.066812    41.00000    -1.50000
H41C  2   0.455922  -0.342176   0.141960    41.00000    -1.50000
AFIX 0
C42   1   0.986837   0.858148   0.343567    51.00000     0.13433     0.09018 =
      0.10762     0.00895    -0.00334     0.03811
AFIX 43
H42   2   0.926571   0.878839   0.312228    51.00000    -1.20000
AFIX 0
C43   1   1.161621   0.794329   0.433757    51.00000     0.13417     0.09070 =
      0.10546     0.02602     0.00640     0.03414
AFIX 43
H43   2   1.221556   0.773224   0.465017    51.00000    -1.20000
AFIX 0
C44   1   0.719027  -0.264544   0.169041    41.00000     0.13933     0.08573 =
      0.10109     0.02174     0.01687     0.05806
AFIX 137
H44A  2   0.746609  -0.336008   0.152458    41.00000    -1.50000
H44B  2   0.686875  -0.258809   0.210451    41.00000    -1.50000
H44C  2   0.795097  -0.205747   0.178945    41.00000    -1.50000
AFIX 0
PART 2
C22B  1   0.259212  -0.043629   0.056706   -21.00000     0.06529     0.04452 =
      0.05301    -0.00009     0.00292     0.00602
C25B  1   0.390412  -0.026642   0.030327   -21.00000     0.07423     0.05400 =
      0.04944    -0.00463     0.00373     0.00507
AFIX 137
PART 0
H0    2   0.379536  -0.079290  -0.015318    10.14671    -1.50000
H1    2   0.465635  -0.038442   0.061000    10.14671    -1.50000
H2    2   0.407464   0.048345   0.028933    10.14671    -1.50000
AFIX 0
PART 2
C30B  1   0.219795  -0.166302   0.052826   -21.00000     0.06905     0.04954 =
      0.05850    -0.00581     0.00725     0.00441
AFIX 137
PART 0
H3    2   0.218940  -0.215426   0.007348    10.14671    -1.50000
H4    2   0.131103  -0.177216   0.062253    10.14671    -1.50000
H5    2   0.284779  -0.182708   0.086459    10.14671    -1.50000
AFIX 0
PART 2
C16B  1   0.087711  -0.004476   0.153460   -21.00000     0.05359     0.06711 =
      0.06720     0.01107     0.00562     0.00096
C33B  1  -0.032307  -0.086841   0.097923   -21.00000     0.06091     0.09076 =
      0.08475     0.01275     0.01238    -0.00028
AFIX 137
PART 0
H6    2  -0.106880  -0.098828   0.118931    10.14671    -1.50000
H7    2  -0.003930  -0.157031   0.078336    10.14671    -1.50000
HA    2  -0.060492  -0.055709   0.062084    10.14671    -1.50000
AFIX 0
PART 2
C32B  1   0.100322  -0.020790   0.224639   -21.00000     0.05427     0.08659 =
      0.07268     0.01359     0.01140     0.00060
AFIX 137
PART 0
HB    2   0.012426  -0.049836   0.229169    10.14671    -1.50000
HC    2   0.135511   0.049971   0.260606    10.14671    -1.50000
HD    2   0.160883  -0.072666   0.228473    10.14671    -1.50000
AFIX 0
PART 2
C36B  1   0.819660   0.435318   0.269892   -31.00000     0.07917     0.07514 =
      0.12695     0.01879     0.03952    -0.00754
AFIX 137
PART 0
HE    2   0.894548   0.482204   0.264339    10.20009    -1.50000
HF    2   0.853621   0.389379   0.295913    10.20009    -1.50000
HG    2   0.763291   0.481407   0.294130    10.20009    -1.50000
AFIX 0
PART 2
C38B  1   0.670494   0.456749   0.186155   -31.00000     0.09242     0.07486 =
      0.11247     0.03033     0.03483    -0.00633
AFIX 137
PART 0
HH    2   0.733824   0.504573   0.173656    10.20009    -1.50000
HI    2   0.646060   0.499056   0.227726    10.20009    -1.50000
HJ    2   0.590510   0.427594   0.149403    10.20009    -1.50000
AFIX 0
PART 2
C31B  1   0.833515   0.291141   0.164469   -31.00000     0.06108     0.07638 =
      0.09862     0.01647     0.04806     0.00879
AFIX 137
PART 0
HK    2   0.900367   0.339217   0.154171    10.20009    -1.50000
HL    2   0.784059   0.234097   0.122395    10.20009    -1.50000
HM    2   0.877859   0.256640   0.195472    10.20009    -1.50000
AFIX 0
PART 2
C44B  1   0.751819  -0.263456   0.142316   -41.00000     0.11912     0.06974 =
      0.09094     0.01248     0.02910     0.05017
AFIX 137
PART 0
HN    2   0.766459  -0.338248   0.120813    10.19935    -1.50000
HO    2   0.767338  -0.247338   0.191506    10.19935    -1.50000
HP    2   0.813497  -0.210987   0.132262    10.19935    -1.50000
AFIX 0
PART 2
C37B  1   0.579307  -0.288429   0.036530   -41.00000     0.10809     0.06534 =
      0.08791    -0.00357     0.03486     0.02994
AFIX 137
PART 0
HQ    2   0.604049  -0.360669   0.018413    10.19935    -1.50000
HR    2   0.632044  -0.234383   0.023317    10.19935    -1.50000
HS    2   0.484450  -0.292372   0.018279    10.19935    -1.50000
AFIX 0
PART 2
C41B  1   0.526988  -0.324780   0.146206   -41.00000     0.12869     0.03866 =
      0.11527     0.01602     0.02653     0.02752
AFIX 137
PART 0
HT    2   0.544185  -0.400215   0.130878    10.19935    -1.50000
HU    2   0.431650  -0.324838   0.132076    10.19935    -1.50000
HV    2   0.554763  -0.294282   0.195760    10.19935    -1.50000
AFIX 0
PART 2
C28B  1   1.181349   0.744443   0.405996   -51.00000     0.13249     0.08497 =
      0.10206     0.02236     0.00970     0.03241
AFIX 43
H28B  2   1.241067   0.695699   0.411564   -51.00000    -1.20000
AFIX 0
C43B  1   1.205920   0.858189   0.444547   -51.00000     0.13523     0.08879 =
      0.10373     0.01978     0.00639     0.03205
AFIX 43
H43B  2   1.285892   0.889250   0.478236   -51.00000    -1.20000
AFIX 0
C39B  1   1.111455   0.925427   0.432879   -51.00000     0.13531     0.08964 =
      0.10758     0.01825     0.00093     0.03410
AFIX 43
H39B  2   1.127817   1.001428   0.458491   -51.00000    -1.20000
AFIX 0
C34B  1   0.992399   0.877901   0.382573   -51.00000     0.13484     0.09082 =
      0.10844     0.01522    -0.00021     0.03647
AFIX 43
H34B  2   0.931885   0.925811   0.376449   -51.00000    -1.20000
AFIX 0
C42B  1   0.953971   0.766767   0.340488   -51.00000     0.13383     0.09136 =
      0.10849     0.01464     0.00489     0.03526
AFIX 43
H42B  2   0.874094   0.735087   0.306816   -51.00000    -1.20000
AFIX 0
C40B  1   1.058201   0.712327   0.358571   -51.00000     0.13078     0.08557 =
      0.10411     0.02221     0.00753     0.03523
AFIX 43
H40B  2   1.041376   0.636399   0.332759   -51.00000    -1.20000
AFIX 0
PART 0
HKLF 4
END
