TITL CrystalPilot n0096 in P -1
REM CrystalPilot node n0096 tool=optimize_weights
REM R1 = 0.0699 wR2 = 0.2197 GooF = 0.999
CELL 0.71073 10.15540 12.70750 20.80080 107.6910 100.3150 96.2330
ZERR 2 0.00170 0.00210 0.00440 0.0030 0.0030 0.0020
LATT 1
SFAC C H N P Ni La
UNIT 96.1 50.0 8.0 4.0 2.0 2.0

DFIX 1.3900 0.010 C28 C40
DFIX 1.3900 0.010 C40 C42
DFIX 1.3900 0.010 C42 C34
DFIX 1.3900 0.010 C34 C39
DFIX 1.3900 0.010 C39 C43
DFIX 1.3900 0.010 C43 C28
DFIX 1.3900 0.010 C28B C40B
DFIX 1.3900 0.010 C40B C42B
DFIX 1.3900 0.010 C42B C34B
DFIX 1.3900 0.010 C34B C39B
DFIX 1.3900 0.010 C39B C43B
DFIX 1.3900 0.010 C43B C28B
FLAT 0.01 C28 C40 C42 C34 C39 C43
FLAT 0.01 C28B C40B C42B C34B C39B C43B
SADI 0.020 P1 C22 P1 C16 P1 C22B P1 C16B
SADI 0.020 C22 C25 C22 C30 C16 C33 C16 C32 C22B C25B C22B C30B C16B C33B =
 C16B C32B
SIMU 0.010 0.020 P1 C22 C25 C30 C16 C33 C32 C22B C25B C30B C16B C33B C32B
SADI 0.020 C11 C36 C11 C38 C11 C31 C11 C36B C11 C38B C11 C31B
SIMU 0.010 0.020 C11 C36 C38 C31 C36B C38B C31B
SADI 0.020 C27 C44 C27 C37 C27 C41 C27 C44B C27 C37B C27 C41B
SIMU 0.010 0.020 C27 C44 C37 C41 C44B C37B C41B
SIMU 0.010 0.020 C28 C40 C42 C34 C39 C43 C28B C40B C42B C34B C39B C43B

WGHT 0.092580 12.699160
FVAR 0.19010 0.78356 0.83298 0.73009 0.71848
LA1   6   0.429123   0.291517   0.269800    11.00000     0.04318     0.03275 =
      0.04269     0.00567     0.00729     0.00973
NI1   5   0.466915   0.070243   0.207493    11.00000     0.04991     0.03170 =
      0.04635     0.00546     0.01006     0.01110
P1    4   0.260813   0.052413   0.145818    11.00000     0.05204     0.03300 =
      0.04693     0.00255     0.00463     0.00651
P2    4   0.511628   0.071648   0.314987    11.00000     0.06023     0.03562 =
      0.04906     0.00991     0.00956     0.01504
N1    3   0.251716   0.281049   0.169986    11.00000     0.05663     0.03233 =
      0.04701     0.00691     0.00290     0.01108
N2    3   0.383607   0.247134   0.375659    11.00000     0.06430     0.04150 =
      0.04716     0.01003     0.01577     0.01656
N3    3   0.627279   0.295888   0.216947    11.00000     0.04632     0.04386 =
      0.05511     0.01119     0.00961     0.00314
C1    1   0.295269   0.494004   0.270086    11.00000     0.05455     0.03470 =
      0.04850     0.00581     0.00387     0.01308
N4    1   0.116769   0.349147   0.082938    11.00000     0.07607     0.04678 =
      0.04082     0.00924     0.00367     0.01090
AFIX 43
HN4   2   0.103768   0.280081   0.048209    11.00000    -1.20000
AFIX 0
N5    1   0.245969   0.449712   0.315961    11.00000     0.05353     0.04183 =
      0.04635     0.00517     0.00476     0.01540
AFIX 43
HN5   2   0.156181   0.413299   0.304119    11.00000    -1.20000
AFIX 0
N6    1   0.328283   0.458351   0.380148    11.00000     0.05749     0.03556 =
      0.04253     0.00196     0.00722     0.01450
C2    1   0.194910   0.363059   0.150005    11.00000     0.05464     0.03827 =
      0.04532     0.01308     0.00545     0.00951
C3    1   0.570087  -0.144254   0.142326    11.00000     0.08382     0.03449 =
      0.05513     0.00643     0.02147     0.02622
N7    1   0.212154   0.472453   0.199016    11.00000     0.05142     0.03874 =
      0.04606     0.00936     0.00705     0.00591
C4    1   0.593776   0.187683   0.193014    11.00000     0.05137     0.04647 =
      0.05734     0.01278     0.01211     0.01262
C5    1   0.429253   0.550462   0.288855    11.00000     0.06306     0.03784 =
      0.06438     0.01390     0.00713     0.00483
AFIX 43
H5    2   0.463435   0.581495   0.258793    11.00000    -1.20000
AFIX 0
C6    1   0.273924   0.401650   0.425767    11.00000     0.06288     0.05055 =
      0.04120     0.00489     0.00614     0.01885
C7    1   0.219032   0.170866   0.115284    11.00000     0.07526     0.03791 =
      0.05032     0.00466    -0.00355     0.01348
C8    1   0.153937   0.558129   0.182926    11.00000     0.08066     0.04155 =
      0.06031     0.01408     0.00429     0.01608
AFIX 43
H8    2   0.165500   0.627849   0.216876    11.00000    -1.20000
AFIX 0
N8    3   0.529612  -0.061203   0.166062    11.00000     0.07302     0.06034 =
      0.06554     0.01704     0.01410     0.01192
C9    1   0.193617   0.450809   0.469633    11.00000     0.07212     0.07039 =
      0.05035     0.00591     0.01726     0.02924
AFIX 43
H9    2   0.171915   0.520244   0.470110    11.00000    -1.20000
AFIX 0
C10   1   0.460936   0.514896   0.396646    11.00000     0.06873     0.04554 =
      0.04837     0.00171    -0.00413     0.00875
AFIX 43
H10   2   0.516469   0.521855   0.438968    11.00000    -1.20000
AFIX 0
C11   1   0.736096   0.360745   0.198664    11.00000     0.06651     0.05833 =
      0.10111     0.01848     0.03405    -0.00381
C12   1   0.059692   0.435318   0.067966    11.00000     0.10018     0.06182 =
      0.05102     0.02340    -0.00661     0.01113
AFIX 43
H12   2   0.007129   0.421569   0.023835    11.00000    -1.20000
AFIX 0
C13   1   0.309386   0.294764   0.421938    11.00000     0.06343     0.04485 =
      0.04433     0.00735     0.01243     0.01161
C14   1   0.176335   0.296402   0.511355    11.00000     0.08284     0.08259 =
      0.05699     0.01337     0.02531     0.01370
AFIX 43
H14   2   0.143160   0.260351   0.539459    11.00000    -1.20000
AFIX 0
C15   1   0.689943   0.134933   0.365598    11.00000     0.06688     0.05701 =
      0.06288     0.02002    -0.00162     0.01173
PART 1
C16   1   0.104077   0.020283   0.177913    21.00000     0.05135     0.07064 =
      0.08125     0.01895     0.00969     0.00332
PART 0
C17   1   0.513283   0.560857   0.353045    11.00000     0.06469     0.04492 =
      0.06602     0.00784    -0.00257    -0.00448
AFIX 43
H17   2   0.602699   0.598285   0.365532    11.00000    -1.20000
AFIX 0
C18   1   0.716316   0.264338   0.386524    11.00000     0.07371     0.06583 =
      0.07309     0.01509     0.00480     0.00079
AFIX 137
H18A  2   0.652929   0.294309   0.413267    11.00000    -1.50000
H18B  2   0.807316   0.293415   0.413672    11.00000    -1.50000
H18C  2   0.705071   0.285598   0.345619    11.00000    -1.50000
AFIX 0
C19   1   0.415913   0.138882   0.381282    11.00000     0.08130     0.04703 =
      0.04961     0.01576     0.02141     0.02303
C20   1   0.077879   0.540449   0.115948    11.00000     0.11017     0.05393 =
      0.06191     0.02361    -0.00055     0.02822
AFIX 43
H20   2   0.041097   0.598030   0.104507    11.00000    -1.20000
AFIX 0
C21   1   0.257426   0.245648   0.468253    11.00000     0.08465     0.06159 =
      0.05322     0.01724     0.02353     0.01594
AFIX 43
H21   2   0.279150   0.176881   0.469341    11.00000    -1.20000
AFIX 0
PART 1
C22   1   0.216754  -0.059317   0.057568    21.00000     0.07235     0.04514 =
      0.05640    -0.00062     0.00256     0.00411
PART 0
C23   1   0.144523   0.399672   0.512901    11.00000     0.07779     0.09353 =
      0.06229     0.01630     0.03074     0.03431
AFIX 43
H23   2   0.091360   0.434341   0.542267    11.00000    -1.20000
AFIX 0
C24   1   0.497447  -0.073241   0.321721    11.00000     0.10449     0.04211 =
      0.07643     0.02310     0.01698     0.02093
PART 1
C25   1   0.328603  -0.043566   0.017218    21.00000     0.07839     0.05727 =
      0.05776     0.00206     0.00874     0.00807
PART 0
C26   1   0.359360  -0.142268   0.283452    11.00000     0.10455     0.05322 =
      0.10394     0.02625     0.01443    -0.00676
AFIX 137
H26A  2   0.336693  -0.134792   0.238405    11.00000    -1.50000
H26B  2   0.361014  -0.219639   0.278671    11.00000    -1.50000
H26C  2   0.292548  -0.116275   0.308940    11.00000    -1.50000
AFIX 0
C27   1   0.607259  -0.253332   0.114199    11.00000     0.10414     0.05000 =
      0.09239     0.00851     0.03270     0.03683
PART 1
C28   1   1.092046   0.715719   0.372805    51.00000     0.13787     0.08392 =
      0.09994     0.01344     0.00703     0.03158
PART 0
C29   1   0.792138   0.087518   0.322686    11.00000     0.06185     0.11087 =
      0.11138     0.02861     0.00767     0.03614
AFIX 137
H29A  2   0.776212   0.007190   0.309556    11.00000    -1.50000
H29B  2   0.780792   0.109013   0.281866    11.00000    -1.50000
H29C  2   0.883037   0.116829   0.349919    11.00000    -1.50000
AFIX 0
PART 1
C30   1   0.193830  -0.177587   0.065330    21.00000     0.08931     0.04600 =
      0.07011     0.00208     0.00758     0.00623
C31   1   0.858434   0.302966   0.191126    31.00000     0.06574     0.08664 =
      0.12446     0.03432     0.04274     0.00759
C32   1   0.101777   0.102778   0.244848    21.00000     0.06031     0.07898 =
      0.07960     0.01952     0.01549     0.00910
C33   1  -0.035553   0.004515   0.127251    21.00000     0.05697     0.08977 =
      0.09906     0.02561     0.01172     0.00744
C34   1   1.057994   0.938528   0.405127    51.00000     0.13647     0.08248 =
      0.10379     0.00968    -0.00077     0.03142
PART 0
C35   1   0.540470  -0.081071   0.394113    11.00000     0.17393     0.07671 =
      0.10080     0.05290     0.00914     0.02538
AFIX 137
H35A  2   0.628538  -0.036015   0.416394    11.00000    -1.50000
H35B  2   0.475722  -0.054377   0.420856    11.00000    -1.50000
H35C  2   0.544188  -0.157742   0.390587    11.00000    -1.50000
AFIX 0
PART 1
C36   1   0.770119   0.478292   0.248802    31.00000     0.09398     0.07182 =
      0.12230     0.02307     0.04310    -0.00334
C37   1   0.648950  -0.255110   0.047326    41.00000     0.10567     0.07990 =
      0.09562     0.01488     0.03655     0.03310
C38   1   0.679232   0.370233   0.126243    31.00000     0.08889     0.08355 =
      0.10932     0.03342     0.03764     0.00105
AFIX 13
PART 0
H38   2   0.591214   0.320537   0.104746    10.83298    -1.20000
AFIX 0
PART 1
C39   1   1.147520   0.905041   0.450798    51.00000     0.14119     0.08964 =
      0.10344     0.01538     0.00305     0.03393
C40   1   1.005468   0.747523   0.325573    51.00000     0.13815     0.08645 =
      0.10685     0.01279     0.00552     0.03335
C41   1   0.480846  -0.348024   0.096357    41.00000     0.12368     0.05258 =
      0.11068     0.01265     0.03924     0.02621
C42   1   0.983923   0.857632   0.344294    51.00000     0.13984     0.08553 =
      0.10488     0.01045     0.00275     0.03370
C43   1   1.164661   0.793843   0.434532    51.00000     0.14228     0.09113 =
      0.10380     0.01862     0.00793     0.03478
C44   1   0.715017  -0.265218   0.171542    41.00000     0.11940     0.08102 =
      0.10297     0.02892     0.03384     0.04949
PART 2
C22B  1   0.248299  -0.043630   0.054056   -21.00000     0.07409     0.04549 =
      0.05633     0.00051     0.00526     0.00498
C25B  1   0.375818  -0.020184   0.026441   -21.00000     0.07538     0.05016 =
      0.05596    -0.00055     0.00617     0.00407
C30B  1   0.213457  -0.167622   0.048096   -21.00000     0.07742     0.04615 =
      0.05829     0.00033     0.00584     0.00442
C16B  1   0.107049  -0.006514   0.169267   -21.00000     0.05572     0.07166 =
      0.08130     0.01857     0.01113     0.00605
C33B  1  -0.027584  -0.052475   0.114572   -21.00000     0.05706     0.07909 =
      0.09249     0.02302     0.01212     0.00680
C32B  1   0.096658   0.022600   0.244411   -21.00000     0.06002     0.08126 =
      0.08468     0.02321     0.01364     0.00775
C36B  1   0.839020   0.423406   0.267581   -31.00000     0.07571     0.07441 =
      0.11815     0.02690     0.03948    -0.00125
C38B  1   0.668644   0.453471   0.181849   -31.00000     0.08366     0.07235 =
      0.11252     0.02677     0.03905    -0.00121
AFIX 13
PART 0
H38B  2   0.575340   0.448782   0.188513    10.16702    -1.20000
AFIX 0
PART 2
C31B  1   0.804838   0.292262   0.145312   -31.00000     0.07477     0.07892 =
      0.11216     0.02989     0.04006     0.00239
C44B  1   0.753396  -0.254470   0.150512   -41.00000     0.10963     0.07077 =
      0.09720     0.02233     0.03337     0.04467
C37B  1   0.577386  -0.281215   0.035558   -41.00000     0.10820     0.07169 =
      0.09568     0.01306     0.03690     0.03556
C41B  1   0.507487  -0.330044   0.135620   -41.00000     0.11898     0.04897 =
      0.10216     0.01186     0.03663     0.02999
C28B  1   1.180369   0.743365   0.406256   -51.00000     0.14020     0.08345 =
      0.09899     0.01254     0.00676     0.03166
C43B  1   1.204639   0.855660   0.447506   -51.00000     0.14254     0.08667 =
      0.10128     0.01391     0.00648     0.03322
C39B  1   1.116767   0.928933   0.437814   -51.00000     0.14170     0.08817 =
      0.10523     0.01497     0.00485     0.03381
C34B  1   1.002645   0.885054   0.383768   -51.00000     0.14063     0.08851 =
      0.10586     0.01438     0.00435     0.03440
C42B  1   0.969867   0.770757   0.347230   -51.00000     0.13978     0.08818 =
      0.10406     0.01347     0.00561     0.03305
C40B  1   1.063246   0.700961   0.354416   -51.00000     0.13852     0.08597 =
      0.10151     0.01384     0.00565     0.03179
PART 0
HKLF 4
END
