TITL CrystalPilot n0150 in P -1
REM CrystalPilot node n0150 tool=run_shelxl
REM R1 = 0.065 wR2 = 0.1997 GooF = 0.953
CELL 0.71073 10.15540 12.70750 20.80080 107.6910 100.3150 96.2330
ZERR 2 0.00170 0.00210 0.00440 0.0030 0.0030 0.0020
LATT 1
SFAC C H N P Ni La
UNIT 96.0 125.7 8.0 4.0 2.0 2.0

DFIX 1.3900 0.010 C28 C40
DFIX 1.3900 0.010 C40 C42
DFIX 1.3900 0.010 C42 C34
DFIX 1.3900 0.010 C34 C39
DFIX 1.3900 0.010 C39 C43
DFIX 1.3900 0.010 C43 C28
DFIX 1.3900 0.010 C28B C40B
DFIX 1.3900 0.010 C40B C42B
DFIX 1.3900 0.010 C42B C34B
DFIX 1.3900 0.010 C34B C39B
DFIX 1.3900 0.010 C39B C43B
DFIX 1.3900 0.010 C43B C28B
FLAT 0.01 C28 C40 C42 C34 C39 C43
FLAT 0.01 C28B C40B C42B C34B C39B C43B
SADI 0.020 P1 C22 P1 C16 P1 C22B P1 C16B
SADI 0.020 C22 C25 C22 C30 C16 C33 C16 C32 C22B C25B C22B C30B C16B C33B =
 C16B C32B
SIMU 0.010 0.020 P1 C22 C25 C30 C16 C33 C32 C22B C25B C30B C16B C33B C32B
SADI 0.020 C11 C36 C11 C38 C11 C31 C11 C36B C11 C38B C11 C31B
SIMU 0.010 0.020 C11 C36 C38 C31 C36B C38B C31B
SADI 0.020 C27 C44 C27 C37 C27 C41 C27 C44B C27 C37B C27 C41B
SIMU 0.010 0.020 C27 C44 C37 C41 C44B C37B C41B
SIMU 0.010 0.020 C28 C40 C42 C34 C39 C43 C28B C40B C42B C34B C39B C43B

WGHT 0.069430 14.286559
FVAR 0.18971 0.86628 0.77490 0.80702 0.71589
LA1   6   0.429131   0.291511   0.269795    11.00000     0.04352     0.03310 =
      0.04307     0.00579     0.00734     0.00978
NI1   5   0.466929   0.070244   0.207492    11.00000     0.04994     0.03176 =
      0.04647     0.00553     0.01021     0.01115
P1    4   0.260809   0.052368   0.145804    11.00000     0.05179     0.03295 =
      0.04698     0.00316     0.00492     0.00681
P2    4   0.511722   0.071677   0.315002    11.00000     0.06008     0.03564 =
      0.04889     0.00989     0.00960     0.01498
N1    3   0.251787   0.281074   0.169960    11.00000     0.05627     0.03246 =
      0.04724     0.00693     0.00340     0.01070
N2    3   0.383391   0.247079   0.375646    11.00000     0.06390     0.04135 =
      0.04762     0.01049     0.01625     0.01621
N3    3   0.627326   0.295442   0.216780    11.00000     0.04640     0.04374 =
      0.05389     0.01087     0.00967     0.00322
C1    1   0.294932   0.493791   0.270068    11.00000     0.05497     0.03428 =
      0.04885     0.00582     0.00370     0.01286
C45   1   0.117003   0.348916   0.082930    11.00000     0.07509     0.04735 =
      0.04101     0.00922     0.00329     0.01120
AFIX 43
H45   2   0.103757   0.279700   0.048314    11.00000    -1.20000
AFIX 0
C46   1   0.245528   0.449705   0.316150    11.00000     0.05313     0.04130 =
      0.04636     0.00513     0.00532     0.01530
C47   1   0.327923   0.458323   0.380301    11.00000     0.05739     0.03546 =
      0.04174     0.00182     0.00778     0.01469
C2    1   0.195060   0.363029   0.149837    11.00000     0.05408     0.03800 =
      0.04550     0.01326     0.00508     0.00920
C3    1   0.569963  -0.144192   0.142714    11.00000     0.08283     0.03340 =
      0.05514     0.00549     0.02051     0.02633
AFIX 43
H3    2   0.648898  -0.106252   0.137554    11.00000    -1.20000
AFIX 0
C48   1   0.211845   0.472300   0.199075    11.00000     0.05131     0.03823 =
      0.04596     0.00915     0.00692     0.00599
C4    1   0.594170   0.187941   0.192861    11.00000     0.05166     0.04596 =
      0.05714     0.01304     0.01179     0.01235
C5    1   0.429129   0.550618   0.289247    11.00000     0.06333     0.03835 =
      0.06434     0.01403     0.00752     0.00429
C6    1   0.274477   0.401986   0.425829    11.00000     0.06236     0.04964 =
      0.04209     0.00473     0.00587     0.01861
C7    1   0.219075   0.170769   0.115587    11.00000     0.07324     0.04042 =
      0.04922     0.00505    -0.00228     0.01405
C8    1   0.154007   0.557876   0.182563    11.00000     0.08098     0.04191 =
      0.06102     0.01525     0.00489     0.01642
AFIX 43
H8    2   0.166257   0.627919   0.216280    11.00000    -1.20000
AFIX 0
N4    3   0.529848  -0.061601   0.166147    11.00000     0.07286     0.06091 =
      0.06620     0.01793     0.01395     0.01293
C9    1   0.193694   0.450761   0.469694    11.00000     0.07202     0.06959 =
      0.05041     0.00480     0.01675     0.02878
AFIX 43
H9    2   0.171594   0.520039   0.470058    11.00000    -1.20000
AFIX 0
C10   1   0.459865   0.515239   0.396956    11.00000     0.06892     0.04605 =
      0.04788     0.00059    -0.00466     0.00954
C11   1   0.735899   0.360503   0.198494    11.00000     0.06228     0.05158 =
      0.09315     0.02069     0.03390     0.00252
C12   1   0.060019   0.435260   0.067732    11.00000     0.10191     0.06186 =
      0.05196     0.02464    -0.00688     0.01151
AFIX 43
H12   2   0.008185   0.421823   0.023482    11.00000    -1.20000
AFIX 0
C13   1   0.309808   0.295031   0.422045    11.00000     0.06241     0.04500 =
      0.04405     0.00708     0.01202     0.01164
C14   1   0.176331   0.296563   0.511374    11.00000     0.08238     0.08359 =
      0.05677     0.01306     0.02445     0.01151
AFIX 43
H14   2   0.142498   0.260434   0.539279    11.00000    -1.20000
AFIX 0
C15   1   0.690106   0.135347   0.364918    11.00000     0.06785     0.05859 =
      0.06027     0.02218    -0.00266     0.01058
AFIX 13
H15   2   0.703012   0.115966   0.407500    11.00000    -1.20000
AFIX 0
PART 1
C16   1   0.106611   0.017168   0.177954    21.00000     0.04908     0.07081 =
      0.06943     0.02028     0.00260    -0.00250
AFIX 13
H16   2   0.119599  -0.055447   0.183011    21.00000    -1.20000
AFIX 0
PART 0
C17   1   0.513080   0.561304   0.353053    11.00000     0.06554     0.04409 =
      0.06510     0.00825    -0.00331    -0.00474
C18   1   0.715589   0.264083   0.386488    11.00000     0.07633     0.06818 =
      0.07284     0.01656     0.00261     0.00007
AFIX 137
H18A  2   0.807859   0.293030   0.411826    11.00000    -1.50000
H18B  2   0.654926   0.293455   0.415195    11.00000    -1.50000
H18C  2   0.699890   0.286128   0.345909    11.00000    -1.50000
AFIX 0
C19   1   0.416307   0.139262   0.380776    11.00000     0.07728     0.04735 =
      0.04818     0.01532     0.01834     0.01913
AFIX 23
H19A  2   0.470229   0.151678   0.426739    11.00000    -1.20000
H19B  2   0.332753   0.088815   0.374671    11.00000    -1.20000
AFIX 0
C20   1   0.077831   0.539962   0.116045    11.00000     0.11003     0.05362 =
      0.06185     0.02360     0.00011     0.02901
AFIX 43
H20   2   0.040245   0.597392   0.104823    11.00000    -1.20000
AFIX 0
C21   1   0.258262   0.245645   0.468469    11.00000     0.08226     0.06039 =
      0.05252     0.01635     0.02300     0.01469
AFIX 43
H21   2   0.280580   0.177160   0.469815    11.00000    -1.20000
AFIX 0
PART 1
C22   1   0.218379  -0.057643   0.057659    21.00000     0.06802     0.04608 =
      0.05581    -0.00327    -0.00522     0.00831
AFIX 13
H22   2   0.133138  -0.049249   0.030556    21.00000    -1.20000
AFIX 0
PART 0
C23   1   0.144892   0.399997   0.512883    11.00000     0.07743     0.09328 =
      0.06033     0.01467     0.02912     0.03469
AFIX 43
H23   2   0.091982   0.434883   0.542326    11.00000    -1.20000
AFIX 0
C24   1   0.496238  -0.073142   0.322324    11.00000     0.10225     0.04238 =
      0.07775     0.02258     0.02117     0.02361
AFIX 13
H24   2   0.566011  -0.105460   0.299545    11.00000    -1.20000
AFIX 0
PART 1
C25   1   0.331227  -0.041563   0.017996    21.00000     0.08613     0.06506 =
      0.05627    -0.00165     0.00667     0.01840
AFIX 137
H25A  2   0.309038  -0.097964  -0.026980    21.00000    -1.50000
H25B  2   0.416815  -0.048202   0.043475    21.00000    -1.50000
H25C  2   0.337382   0.031388   0.013047    21.00000    -1.50000
AFIX 0
PART 0
C26   1   0.359938  -0.142294   0.284024    11.00000     0.10497     0.05233 =
      0.10381     0.02520     0.01825    -0.00540
AFIX 137
H26A  2   0.355242  -0.215375   0.288730    11.00000    -1.50000
H26B  2   0.346816  -0.149426   0.235922    11.00000    -1.50000
H26C  2   0.290297  -0.106453   0.302844    11.00000    -1.50000
AFIX 0
C27   1   0.606856  -0.253648   0.114320    11.00000     0.10563     0.04670 =
      0.09024     0.01473     0.03629     0.04299
PART 1
C28   1   1.095276   0.715208   0.372643    51.00000     0.13032     0.08470 =
      0.10260     0.02194     0.00992     0.03442
AFIX 43
H28   2   1.109140   0.641277   0.361981    51.00000    -1.20000
AFIX 0
PART 0
C29   1   0.791895   0.087109   0.322868    11.00000     0.06168     0.10477 =
      0.10899     0.02907     0.01016     0.03404
AFIX 137
H29A  2   0.882736   0.120406   0.349016    11.00000    -1.50000
H29B  2   0.777004   0.103315   0.280231    11.00000    -1.50000
H29C  2   0.779758   0.007364   0.312995    11.00000    -1.50000
AFIX 0
PART 1
C30   1   0.194434  -0.176361   0.063615    21.00000     0.09945     0.04775 =
      0.08288    -0.00620    -0.00613     0.00560
AFIX 137
H30A  2   0.172905  -0.231472   0.018191    21.00000    -1.50000
H30B  2   0.120355  -0.183063   0.085844    21.00000    -1.50000
H30C  2   0.275189  -0.188190   0.090504    21.00000    -1.50000
AFIX 0
C31   1   0.862619   0.307673   0.196453    31.00000     0.06049     0.09962 =
      0.13884     0.02806     0.04162     0.00663
AFIX 137
H31A  2   0.929496   0.353108   0.184386    31.00000    -1.50000
H31B  2   0.840210   0.233950   0.162542    31.00000    -1.50000
H31C  2   0.898393   0.302508   0.241139    31.00000    -1.50000
AFIX 0
C32   1   0.101021   0.101652   0.244838    21.00000     0.06093     0.09465 =
      0.07592     0.01344     0.01439     0.00864
AFIX 137
H32A  2   0.020319   0.079644   0.258916    21.00000    -1.50000
H32B  2   0.099604   0.173662   0.239029    21.00000    -1.50000
H32C  2   0.179542   0.106021   0.279613    21.00000    -1.50000
AFIX 0
C33   1  -0.033744  -0.000169   0.127899    21.00000     0.05337     0.11313 =
      0.09929     0.00694     0.00497    -0.00306
AFIX 137
H33A  2  -0.105017  -0.017715   0.149641    21.00000    -1.50000
H33B  2  -0.039015  -0.060770   0.086011    21.00000    -1.50000
H33C  2  -0.043722   0.067290   0.117188    21.00000    -1.50000
AFIX 0
C34   1   1.055031   0.936711   0.404992    51.00000     0.13315     0.08525 =
      0.10630     0.00998    -0.00929     0.03695
AFIX 43
H34   2   1.041296   1.010667   0.415547    51.00000    -1.20000
AFIX 0
PART 0
C35   1   0.538762  -0.081117   0.393868    11.00000     0.18026     0.07299 =
      0.09870     0.05002     0.00992     0.02648
AFIX 137
H35A  2   0.526378  -0.158501   0.391039    11.00000    -1.50000
H35B  2   0.484191  -0.042099   0.423177    11.00000    -1.50000
H35C  2   0.632739  -0.047818   0.412849    11.00000    -1.50000
AFIX 0
PART 1
C36   1   0.766664   0.480508   0.247470    31.00000     0.11310     0.06555 =
      0.12281     0.01223     0.03676    -0.02025
AFIX 137
H36A  2   0.837140   0.522736   0.235599    31.00000    -1.50000
H36B  2   0.796150   0.481251   0.294133    31.00000    -1.50000
H36C  2   0.686180   0.513511   0.243685    31.00000    -1.50000
AFIX 0
C37   1   0.646838  -0.258132   0.048202    41.00000     0.11249     0.08936 =
      0.09922     0.00378     0.03649     0.02044
AFIX 137
H37A  2   0.671836  -0.329625   0.028135    41.00000    -1.50000
H37B  2   0.722738  -0.199619   0.057164    41.00000    -1.50000
H37C  2   0.571718  -0.248043   0.016677    41.00000    -1.50000
AFIX 0
C38   1   0.678351   0.368638   0.126445    31.00000     0.09945     0.08651 =
      0.09561     0.04021     0.02664    -0.00711
AFIX 137
H38A  2   0.746948   0.410598   0.113254    31.00000    -1.50000
H38B  2   0.600987   0.405761   0.128326    31.00000    -1.50000
H38C  2   0.651396   0.294605   0.093032    31.00000    -1.50000
AFIX 0
C39   1   1.143574   0.905449   0.451654    51.00000     0.13602     0.09146 =
      0.10227     0.01610    -0.00568     0.03568
AFIX 43
H39   2   1.190193   0.957729   0.493871    51.00000    -1.20000
AFIX 0
C40   1   1.007874   0.748615   0.327275    51.00000     0.13038     0.08927 =
      0.11072     0.01052     0.00183     0.03901
AFIX 43
H40   2   0.961506   0.696206   0.285053    51.00000    -1.20000
AFIX 0
C41   1   0.483585  -0.345636   0.099421    41.00000     0.13771     0.04757 =
      0.13760     0.01592     0.03977     0.01977
AFIX 137
H41A  2   0.508017  -0.417820   0.080690    41.00000    -1.50000
H41B  2   0.410607  -0.335750   0.066627    41.00000    -1.50000
H41C  2   0.454979  -0.340910   0.141621    41.00000    -1.50000
AFIX 0
C42   1   0.987384   0.858097   0.342951    51.00000     0.13609     0.08985 =
      0.10708     0.00848    -0.00523     0.03759
AFIX 43
H42   2   0.927589   0.878831   0.311442    51.00000    -1.20000
AFIX 0
C43   1   1.161336   0.795210   0.434320    51.00000     0.13487     0.09142 =
      0.10372     0.02329     0.00471     0.03478
AFIX 43
H43   2   1.220705   0.774098   0.465805    51.00000    -1.20000
AFIX 0
C44   1   0.715951  -0.265755   0.169146    41.00000     0.14011     0.08423 =
      0.11095     0.02706     0.01531     0.05519
AFIX 137
H44A  2   0.743503  -0.337221   0.152519    41.00000    -1.50000
H44B  2   0.681708  -0.260812   0.209904    41.00000    -1.50000
H44C  2   0.792574  -0.206992   0.180160    41.00000    -1.50000
AFIX 0
PART 2
C22B  1   0.261435  -0.044257   0.057304   -21.00000     0.06754     0.04419 =
      0.05340    -0.00033     0.00144     0.00688
AFIX 13
H22B  2   0.193893  -0.026709   0.023874   -21.00000    -1.20000
AFIX 0
C25B  1   0.389443  -0.022426   0.029487   -21.00000     0.07409     0.05259 =
      0.05024    -0.00507     0.00152     0.00703
AFIX 137
H0    2   0.379680  -0.075959  -0.015773   -21.00000    -1.50000
H1    2   0.467961  -0.029779   0.060149   -21.00000    -1.50000
H2    2   0.400173   0.052016   0.026812   -21.00000    -1.50000
AFIX 0
C30B  1   0.215934  -0.166457   0.052802   -21.00000     0.07337     0.04839 =
      0.05966    -0.00607     0.00478     0.00542
AFIX 137
H4    2   0.216199  -0.215953   0.007597   -21.00000    -1.50000
H5    2   0.125863  -0.175125   0.060889   -21.00000    -1.50000
H6    2   0.277389  -0.184431   0.087115   -21.00000    -1.50000
AFIX 0
C16B  1   0.086511   0.003491   0.155249   -21.00000     0.05250     0.06676 =
      0.06719     0.01217     0.00410     0.00205
C33B  1  -0.034816  -0.071470   0.097467   -21.00000     0.05955     0.09152 =
      0.08528     0.01331     0.00896     0.00239
AFIX 137
H7    2  -0.111471  -0.083080   0.117162   -21.00000    -1.50000
HA    2  -0.010312  -0.142479   0.075739   -21.00000    -1.50000
HB    2  -0.058020  -0.035408   0.063612   -21.00000    -1.50000
AFIX 0
C32B  1   0.098252  -0.008459   0.227433   -21.00000     0.04940     0.08478 =
      0.07443     0.01320     0.01019     0.00391
AFIX 137
HC    2   0.009615  -0.033466   0.232959   -21.00000    -1.50000
HD    2   0.136768   0.062810   0.262308   -21.00000    -1.50000
HE    2   0.155695  -0.062172   0.232044   -21.00000    -1.50000
AFIX 0
C36B  1   0.819832   0.441282   0.268849   -31.00000     0.08803     0.06701 =
      0.12122     0.01189     0.03526    -0.01695
AFIX 137
HF    2   0.893428   0.487238   0.261593   -31.00000    -1.50000
HG    2   0.855633   0.398822   0.296895   -31.00000    -1.50000
HH    2   0.762750   0.488136   0.291911   -31.00000    -1.50000
AFIX 0
C38B  1   0.673469   0.460115   0.188430   -31.00000     0.09653     0.07944 =
      0.11431     0.02895     0.03058    -0.00573
AFIX 137
HI    2   0.737654   0.507712   0.176248   -31.00000    -1.50000
HJ    2   0.650840   0.501899   0.230658   -31.00000    -1.50000
HK    2   0.592699   0.433303   0.152063   -31.00000    -1.50000
AFIX 0
C31B  1   0.832900   0.288445   0.166261   -31.00000     0.04563     0.07202 =
      0.10099     0.00741     0.04570     0.00954
AFIX 137
HL    2   0.901216   0.334330   0.155359   -31.00000    -1.50000
HM    2   0.783179   0.230433   0.124686   -31.00000    -1.50000
HN    2   0.875473   0.255133   0.198412   -31.00000    -1.50000
AFIX 0
C44B  1   0.752712  -0.256052   0.144275   -41.00000     0.12086     0.07098 =
      0.10156     0.02228     0.02861     0.05101
AFIX 137
HO    2   0.772812  -0.329487   0.124244   -41.00000    -1.50000
HP    2   0.766491  -0.238334   0.193530   -41.00000    -1.50000
HQ    2   0.811685  -0.201865   0.134119   -41.00000    -1.50000
AFIX 0
C37B  1   0.578611  -0.289053   0.036755   -41.00000     0.11066     0.06845 =
      0.09402     0.00037     0.03972     0.03292
AFIX 137
HR    2   0.603412  -0.361307   0.018772   -41.00000    -1.50000
HS    2   0.630775  -0.235255   0.023114   -41.00000    -1.50000
HT    2   0.483581  -0.293242   0.018769   -41.00000    -1.50000
AFIX 0
C41B  1   0.525890  -0.326170   0.143906   -41.00000     0.13624     0.05210 =
      0.11369     0.02727     0.02886     0.03677
AFIX 137
HU    2   0.543403  -0.401436   0.127988   -41.00000    -1.50000
HV    2   0.430779  -0.326153   0.129054   -41.00000    -1.50000
HW    2   0.551847  -0.297176   0.193545   -41.00000    -1.50000
AFIX 0
C28B  1   1.178502   0.746345   0.406805   -51.00000     0.13296     0.08489 =
      0.10041     0.02029     0.00755     0.03273
AFIX 43
H28B  2   1.237661   0.697649   0.413336   -51.00000    -1.20000
AFIX 0
C43B  1   1.208100   0.860084   0.445505   -51.00000     0.13598     0.08897 =
      0.10159     0.01692     0.00438     0.03275
AFIX 43
H43B  2   1.288051   0.891051   0.479221   -51.00000    -1.20000
AFIX 0
C39B  1   1.112653   0.925059   0.431388   -51.00000     0.13606     0.08972 =
      0.10587     0.01485    -0.00178     0.03504
AFIX 43
H39B  2   1.128714   1.001429   0.456079   -51.00000    -1.20000
AFIX 0
C34B  1   0.993718   0.877878   0.381042   -51.00000     0.13560     0.09045 =
      0.10690     0.01328    -0.00222     0.03696
AFIX 43
H34B  2   0.933907   0.925900   0.374091   -51.00000    -1.20000
AFIX 0
C42B  1   0.955390   0.766213   0.340124   -51.00000     0.13467     0.09111 =
      0.10773     0.01263     0.00280     0.03545
AFIX 43
H42B  2   0.875510   0.734860   0.306408   -51.00000    -1.20000
AFIX 0
C40B  1   1.056951   0.709612   0.358291   -51.00000     0.13156     0.08584 =
      0.10284     0.01969     0.00509     0.03518
AFIX 43
H40B  2   1.040408   0.633299   0.333415   -51.00000    -1.20000
AFIX 0
PART 0
HKLF 4
END
