TITL CrystalPilot n0002 in I 41/a m d :2
REM CrystalPilot node n0002 tool=refine
REM R1 = 0.2456 wR2 = 0.6222 GooF = 5.277
CELL 1.54178 15.85170 15.85170 57.50380 90.0000 90.0000 90.0000
ZERR 4 0 0 0 0 0 0
LATT 2
SYMM -Y+1/4,X+3/4,Z+1/4
SYMM Y+1/4,-X+1/4,Z+3/4
SYMM X,-Y,-Z
SYMM -X,Y+1/2,-Z
SYMM -X,-Y+1/2,Z
SYMM Y+1/4,X+3/4,-Z+1/4
SYMM -Y+1/4,-X+1/4,-Z+3/4
SFAC C O Zr
UNIT 208.0 112.0 24.0

WGHT 0.100000 0.000000
FVAR 0.11356
FE01  3   0.000000   0.250000   0.331580    10.25000     0.03748
ZR02  3   0.110298   0.360298   0.375000    10.50000     0.04990
O004  2   0.129224   0.250000   0.350303    10.50000     0.04668
O005  2   0.089007   0.335412   0.437278    11.00000     0.07881
O006  2   0.158628   0.404844   0.408420    11.00000     0.08856
O007  2   0.076317   0.501269   0.373992    11.00000     0.09985
C008  1   0.215376   0.387237   0.468732    11.00000     0.06721
C009  1   0.215336   0.415750   0.445126    11.00000     0.07055
C00A  1   0.150355   0.384547   0.428193    11.00000     0.06788
C00B  1   0.500000   0.469635   0.476981    10.50000     0.08788
C00D  1   0.344618   0.467021   0.474078    11.00000     0.07579
C00E  1   0.425133   0.489520   0.488292    11.00000     0.06491
C00F  1   0.276212   0.476213   0.437328    11.00000     0.08427
HKLF 4
END
