TITL CrystalPilot n0001 in C 2 2 21
REM CrystalPilot node n0001 tool=refine
REM R1 = 0.2285 wR2 = 0.6054 GooF = 6.366
CELL 0.68914 15.79000 32.31000 11.86000 90.0000 90.0000 90.0000
ZERR 8 0 0 0 0 0 0
LATT -7
SYMM X,-Y,-Z
SYMM -X,Y,-Z+1/2
SYMM -X,-Y,Z+1/2
SFAC C O Cu
UNIT 240.0 32.0 8.0

WGHT 0.100000 0.000000
FVAR 0.27534
CU1   3   0.068949   0.019814   0.363456    11.00000     0.04530
C1    1   0.070489   0.294453   0.211275    11.00000     0.03379
C2    1   0.000000   0.272671   0.250000    10.50000     0.03266
C3    1   0.000000   0.404515   0.250000    10.50000     0.04974
O1    2   0.157841   0.046719   0.447483    11.00000     0.04889
C4    1   0.000000   0.360510   0.250000    10.50000     0.03367
C5    1   0.070467   0.337444   0.210573    11.00000     0.03131
O2    2   0.031663   0.075594   0.336085    11.00000     0.06155
C6    1   0.000000   0.141813   0.250000    10.50000     0.05037
O3    2   0.000000  -0.004056   0.250000    10.50000     0.08496
C7    1   0.220314   0.217692   0.063086    11.00000     0.06174
O4    2   0.125999   0.032095   0.630048    11.00000     0.05515
C8    1   0.149503   0.270963   0.175205    11.00000     0.04072
C9    1   0.000000   0.227264   0.250000    10.50000     0.04229
C10   1   0.230430   0.083529   0.591154    11.00000     0.04407
C11   1   0.145347   0.361871   0.171267    11.00000     0.03643
C12   1   0.169487   0.362443   0.054824    11.00000     0.04572
C13   1   0.114869   0.330143   0.725988    11.00000     0.08615
C14   1   0.145895   0.242686   0.085239    11.00000     0.05114
C15   1   0.206380   0.250439   0.719631    11.00000     0.06659
C16   1   0.228745   0.389719   0.019689    11.00000     0.04402
C17   1   0.054121   0.162143   0.321242    11.00000     0.04476
C18   1   0.055085   0.205054   0.320891    11.00000     0.04473
C19   1   0.223038   0.275159   0.237779    11.00000     0.06586
C20   1   0.008836   0.427950   0.148934    11.00000     0.05827
O5    2   0.027530   0.000000   0.000000    10.50000     0.10626
C21   1   0.207821   0.277914   0.630899    11.00000     0.06713
C22   1   0.190963   0.387498   0.245177    11.00000     0.05573
C23   1   0.000000   0.492726   0.250000    10.50000     0.08165
C24   1   0.000000   0.092220   0.250000    10.50000     0.05815
C25   1   0.253342   0.083067   0.705302    11.00000     0.05089
C26   1   0.010647   0.469334   0.153806    11.00000     0.08757
C27   1   0.105924   0.317685   0.517103    11.00000     0.10778
C28   1   0.000000   0.463241   0.750000    10.50000     0.15880
C29X  1   0.166710   0.053966   0.556119    11.00000     0.04450
C30X  1   0.120425   0.300535   0.619478    11.00000     0.07882
C31X  1   0.033877   0.444066   0.848228    11.00000     0.11390
C32X  1   0.045531   0.274588   0.604323    11.00000     0.11063
C33X  1   0.074274   0.291800   0.545598    11.00000     0.16756
C34X  1   0.175677   0.350587   0.524403    11.00000     0.13081
HKLF 4
END
