TITL CrystalPilot n0102 in P -1
REM CrystalPilot node n0102 tool=edit_atoms
REM R1 = 0.0704 wR2 = 0.2211 GooF = 1.005
CELL 0.71073 10.15540 12.70750 20.80080 107.6910 100.3150 96.2330
ZERR 2 0.00170 0.00210 0.00440 0.0030 0.0030 0.0020
LATT 1
SFAC C H N Si P Ni
UNIT 96.1 42.0 8.0 2.0 4.0 2.0

DFIX 1.3900 0.010 C32 C44
DFIX 1.3900 0.010 C44 C46
DFIX 1.3900 0.010 C46 C38
DFIX 1.3900 0.010 C38 C43
DFIX 1.3900 0.010 C43 C47
DFIX 1.3900 0.010 C47 C32
DFIX 1.3900 0.010 C61 C66
DFIX 1.3900 0.010 C66 C65
DFIX 1.3900 0.010 C65 C64
DFIX 1.3900 0.010 C64 C63
DFIX 1.3900 0.010 C63 C62
DFIX 1.3900 0.010 C62 C61
FLAT 0.01 C32 C44 C46 C38 C43 C47
FLAT 0.01 C61 C66 C65 C64 C63 C62
SADI 0.020 P1 C26 P1 C20 P1 C49 P1 C52
SADI 0.020 C26 C29 C26 C34 C20 C37 C20 C36 C49 C50 C49 C51 C52 C53 C52 C54
SIMU 0.010 0.020 P1 C26 C29 C34 C20 C37 C36 C49 C50 C51 C52 C53 C54
SADI 0.020 C15 C40 C15 C42 C15 C35 C15 C55 C15 C56 C15 C57
SIMU 0.010 0.020 C15 C40 C42 C35 C55 C56 C57
SADI 0.020 C31 C48 C31 C41 C31 C45 C31 C58 C31 C59 C31 C60
SIMU 0.010 0.020 C31 C48 C41 C45 C58 C59 C60
SIMU 0.010 0.020 C32 C44 C46 C38 C43 C47 C61 C66 C65 C64 C63 C62

WGHT 0.092580 12.699160
FVAR 0.19005 0.78356 0.83298 0.73009 0.71848
La1   4   0.429126   0.291519   0.269799    11.00000     0.04318     0.03273 =
      0.04264     0.00566     0.00732     0.00967
Ni1   6   0.466908   0.070231   0.207488    11.00000     0.04990     0.03173 =
      0.04630     0.00541     0.01018     0.01107
P1    5   0.260798   0.052405   0.145811    11.00000     0.05199     0.03303 =
      0.04692     0.00265     0.00476     0.00648
P2    5   0.511644   0.071643   0.314984    11.00000     0.06023     0.03555 =
      0.04906     0.00987     0.00951     0.01500
N1    3   0.251721   0.281048   0.169977    11.00000     0.05647     0.03255 =
      0.04683     0.00696     0.00324     0.01099
N2    3   0.383603   0.247125   0.375651    11.00000     0.06428     0.04097 =
      0.04732     0.00989     0.01575     0.01627
N3    3   0.627277   0.295896   0.216939    11.00000     0.04612     0.04358 =
      0.05509     0.01071     0.00944     0.00318
C1    1   0.295265   0.494002   0.270085    11.00000     0.05492     0.03471 =
      0.04890     0.00582     0.00325     0.01271
C2    1   0.116773   0.349145   0.082938    11.00000     0.07605     0.04657 =
      0.04085     0.00922     0.00354     0.01020
AFIX 43
H2    2   0.103775   0.280080   0.048208    11.00000    -1.20000
AFIX 0
C3    1   0.245949   0.449697   0.315966    11.00000     0.05679     0.04226 =
      0.04483     0.00526     0.00522     0.01762
C4    1   0.328281   0.458355   0.380141    11.00000     0.05776     0.03549 =
      0.04245     0.00179     0.00680     0.01428
C5    1   0.194910   0.363059   0.149997    11.00000     0.05468     0.03830 =
      0.04519     0.01298     0.00597     0.00995
C6    1   0.570084  -0.144244   0.142326    11.00000     0.08474     0.03458 =
      0.05534     0.00609     0.02078     0.02623
C7    1   0.212155   0.472448   0.199022    11.00000     0.05163     0.03861 =
      0.04629     0.00933     0.00689     0.00575
C8    1   0.593773   0.187681   0.193016    11.00000     0.05131     0.04663 =
      0.05752     0.01265     0.01249     0.01262
C9    1   0.429270   0.550484   0.288817    11.00000     0.06278     0.03725 =
      0.06550     0.01180     0.00545     0.00538
C10   1   0.273919   0.401651   0.425769    11.00000     0.06312     0.05061 =
      0.04116     0.00451     0.00634     0.01889
C11   1   0.219034   0.170865   0.115279    11.00000     0.07468     0.03813 =
      0.05039     0.00423    -0.00353     0.01357
C12   1   0.153928   0.558133   0.182937    11.00000     0.08116     0.04154 =
      0.06087     0.01441     0.00365     0.01569
AFIX 43
H12   2   0.165484   0.627850   0.216889    11.00000    -1.20000
AFIX 0
N4    3   0.529608  -0.061200   0.166059    11.00000     0.07282     0.05954 =
      0.06601     0.01693     0.01454     0.01246
C13   1   0.193617   0.450811   0.469627    11.00000     0.07223     0.07101 =
      0.05035     0.00611     0.01762     0.02976
AFIX 43
H13   2   0.171914   0.520245   0.470102    11.00000    -1.20000
AFIX 0
C14   1   0.460948   0.514886   0.396696    11.00000     0.06846     0.04377 =
      0.05118     0.00209    -0.00241     0.00850
C15   1   0.736093   0.360742   0.198665    11.00000     0.06614     0.05817 =
      0.10118     0.01832     0.03437    -0.00418
PART 1
C16   1   0.059691   0.435312   0.067969    21.00000     0.10008     0.06154 =
      0.05048     0.02300    -0.00591     0.01135
AFIX 43
PART 0
H16   2   0.007127   0.421562   0.023838    11.00000    -1.20000
AFIX 0
C17   1   0.309391   0.294761   0.421939    11.00000     0.06352     0.04441 =
      0.04470     0.00755     0.01255     0.01137
C18   1   0.176330   0.296406   0.511355    11.00000     0.08442     0.08340 =
      0.05719     0.01353     0.02562     0.01338
AFIX 43
H18   2   0.143147   0.260357   0.539458    11.00000    -1.20000
AFIX 0
C19   1   0.689945   0.134925   0.365595    11.00000     0.06694     0.05793 =
      0.06241     0.02026    -0.00149     0.01196
C20   1   0.104077   0.020286   0.177921    10.78674     0.05100     0.07084 =
      0.08141     0.01884     0.00992     0.00316
C21   1   0.513308   0.560869   0.353046    11.00000     0.06708     0.04485 =
      0.06444     0.00733    -0.00168    -0.00253
PART 1
C22   1   0.716319   0.264333   0.386517    21.00000     0.07304     0.06518 =
      0.07336     0.01449     0.00477     0.00134
AFIX 137
PART 0
H22A  2   0.652930   0.294307   0.413259    11.00000    -1.50000
H22B  2   0.807318   0.293412   0.413666    11.00000    -1.50000
H22C  2   0.705077   0.285589   0.345611    11.00000    -1.50000
AFIX 0
C23   1   0.415911   0.138885   0.381278    11.00000     0.08113     0.04712 =
      0.04945     0.01573     0.02103     0.02288
C24   1   0.077873   0.540447   0.115953    11.00000     0.11080     0.05350 =
      0.06128     0.02327    -0.00061     0.02815
AFIX 43
H24   2   0.041089   0.598025   0.104511    11.00000    -1.20000
AFIX 0
PART 1
C25   1   0.257433   0.245646   0.468256    21.00000     0.08444     0.06197 =
      0.05303     0.01703     0.02378     0.01611
AFIX 43
PART 0
H25   2   0.279163   0.176884   0.469351    11.00000    -1.20000
AFIX 0
C26   1   0.216754  -0.059312   0.057573    10.78560     0.07207     0.04525 =
      0.05630    -0.00046     0.00257     0.00406
C27   1   0.144519   0.399672   0.512897    11.00000     0.07779     0.09228 =
      0.06347     0.01626     0.03169     0.03405
AFIX 43
H27   2   0.091354   0.434341   0.542262    11.00000    -1.20000
AFIX 0
PART 1
C28   1   0.497449  -0.073239   0.321723    51.00000     0.10531     0.04215 =
      0.07662     0.02302     0.01714     0.02106
PART 0
C29   1   0.328607  -0.043568   0.017218    10.78632     0.07759     0.05749 =
      0.05752     0.00211     0.00866     0.00784
PART 1
C30   1   0.359360  -0.142267   0.283450    21.00000     0.10497     0.05295 =
      0.10271     0.02599     0.01333    -0.00681
AFIX 137
PART 0
H30A  2   0.336696  -0.134788   0.238404    11.00000    -1.50000
H30B  2   0.361013  -0.219639   0.278667    11.00000    -1.50000
H30C  2   0.292547  -0.116275   0.308937    11.00000    -1.50000
AFIX 0
PART 1
C31   1   0.607263  -0.253330   0.114191    31.00000     0.10431     0.04982 =
      0.09184     0.00865     0.03219     0.03708
C32   1   1.092045   0.715726   0.372803    21.00000     0.13791     0.08348 =
      0.10132     0.01309     0.00627     0.03208
C33   1   0.792130   0.087520   0.322693    21.00000     0.06237     0.11210 =
      0.11480     0.03001     0.00657     0.03716
AFIX 137
PART 0
H33A  2   0.776208   0.007193   0.309565    11.00000    -1.50000
H33B  2   0.780786   0.109013   0.281872    11.00000    -1.50000
H33C  2   0.883027   0.116836   0.349928    11.00000    -1.50000
AFIX 0
PART 1
C34   1   0.193833  -0.177590   0.065331    51.00000     0.08925     0.04609 =
      0.07027     0.00215     0.00781     0.00602
PART 0
C35   1   0.858435   0.302961   0.191131    10.83401     0.06595     0.08713 =
      0.12558     0.03488     0.04312     0.00770
PART 1
C36   1   0.101781   0.102771   0.244844    31.00000     0.06045     0.07889 =
      0.08009     0.01925     0.01592     0.00926
C37   1  -0.035553   0.004520   0.127240    41.00000     0.05700     0.09048 =
      0.09913     0.02547     0.01189     0.00745
C38   1   1.057997   0.938523   0.405128    31.00000     0.13635     0.08211 =
      0.10441     0.00912    -0.00160     0.03155
C39   1   0.540474  -0.081067   0.394111    51.00000     0.17238     0.07594 =
      0.10046     0.05257     0.00904     0.02557
AFIX 137
PART 0
H39A  2   0.628543  -0.036010   0.416391    11.00000    -1.50000
H39B  2   0.475728  -0.054374   0.420855    11.00000    -1.50000
H39C  2   0.544194  -0.157737   0.390585    11.00000    -1.50000
AFIX 0
PART 1
C40   1   0.770117   0.478303   0.248800    51.00000     0.09379     0.07258 =
      0.12195     0.02284     0.04356    -0.00326
C41   1   0.648953  -0.255109   0.047328    41.00000     0.10531     0.08008 =
      0.09475     0.01470     0.03652     0.03315
C42   1   0.679232   0.370236   0.126240    51.00000     0.08814     0.08347 =
      0.10938     0.03330     0.03737     0.00059
AFIX 13
PART 0
H42   2   0.591214   0.320541   0.104740    10.83053    -1.20000
AFIX 0
PART 1
C43   1   1.147519   0.905042   0.450796    51.00000     0.14142     0.08896 =
      0.10388     0.01470     0.00215     0.03446
C44   1   1.005472   0.747526   0.325572    41.00000     0.13778     0.08649 =
      0.10742     0.01248     0.00471     0.03358
PART 0
C45   1   0.480842  -0.348028   0.096355    10.73091     0.12338     0.05270 =
      0.11047     0.01276     0.03845     0.02620
C46   1   0.983927   0.857632   0.344295    10.71834     0.13953     0.08493 =
      0.10548     0.00983     0.00177     0.03361
C47   1   1.164657   0.793847   0.434528    10.71635     0.14257     0.09069 =
      0.10453     0.01806     0.00703     0.03503
C48   1   0.715018  -0.265222   0.171539    10.73012     0.11939     0.08140 =
      0.10347     0.02937     0.03293     0.04931
C49   1   0.248299  -0.043630   0.054057    10.21800     0.07386     0.04542 =
      0.05611     0.00052     0.00535     0.00485
C50   1   0.375818  -0.020187   0.026441    10.22012     0.07479     0.05012 =
      0.05567    -0.00065     0.00614     0.00387
C51   1   0.213459  -0.167625   0.048096    10.21978     0.07726     0.04611 =
      0.05820     0.00033     0.00606     0.00424
C52   1   0.107048  -0.006510   0.169269    10.21707     0.05561     0.07184 =
      0.08145     0.01838     0.01143     0.00604
C53   1  -0.027584  -0.052472   0.114573    10.21316     0.05695     0.07929 =
      0.09238     0.02254     0.01238     0.00669
C54   1   0.096658   0.022596   0.244412    10.21591     0.05998     0.08118 =
      0.08482     0.02290     0.01395     0.00781
C55   1   0.839019   0.423411   0.267584    10.16896     0.07571     0.07459 =
      0.11828     0.02685     0.03976    -0.00136
C56   1   0.668643   0.453475   0.181852    10.16876     0.08341     0.07238 =
      0.11236     0.02660     0.03924    -0.00133
AFIX 13
H56   2   0.575339   0.448791   0.188516    10.16876    -1.20000
AFIX 0
C57   1   0.804842   0.292259   0.145316    10.16523     0.07462     0.07904 =
      0.11265     0.02999     0.04021     0.00213
C58   1   0.753397  -0.254470   0.150512    10.27064     0.10936     0.07104 =
      0.09699     0.02269     0.03279     0.04473
C59   1   0.577390  -0.281211   0.035556    10.27067     0.10812     0.07211 =
      0.09504     0.01321     0.03658     0.03576
C60   1   0.507482  -0.330046   0.135621    10.27132     0.11886     0.04890 =
      0.10193     0.01203     0.03591     0.03013
C61   1   1.180369   0.743365   0.406254    10.28502     0.14036     0.08319 =
      0.10005     0.01217     0.00598     0.03197
C62   1   1.204640   0.855662   0.447505    10.28159     0.14275     0.08639 =
      0.10206     0.01349     0.00566     0.03358
C63   1   1.116768   0.928933   0.437814    10.28077     0.14182     0.08764 =
      0.10581     0.01438     0.00402     0.03416
C64   1   1.002649   0.885052   0.383769    10.27983     0.14057     0.08808 =
      0.10662     0.01386     0.00353     0.03458
C65   1   0.969869   0.770757   0.347233    10.27985     0.13967     0.08798 =
      0.10501     0.01312     0.00479     0.03334
C66   1   1.063246   0.700964   0.354416    10.28541     0.13844     0.08551 =
      0.10245     0.01342     0.00485     0.03221
HKLF 4
END
