TITL CrystalPilot n0030 in P -1
REM CrystalPilot node n0030 tool=run_shelxl
REM R1 = 0.0733 wR2 = 0.2588 GooF = 1.904
CELL 0.71073 10.15540 12.70750 20.80080 107.6910 100.3150 96.2330
ZERR 2 0.00170 0.00210 0.00440 0.0030 0.0030 0.0020
LATT 1
SFAC C N P Ni La
UNIT 88.0 16.0 4.0 2.0 2.0

SADI 0.020 C28 C40 C40 C42 C42 C34 C34 C39 C39 C43 C43 C28 C28B C40B C40B =
 C42B C42B C34B C34B C39B C39B C43B C43B C28B

WGHT 0.100000 0.000000
FVAR 0.18807 0.62720
LA1   5   0.429109   0.291517   0.269804    11.00000     0.04337     0.03287 =
      0.04282     0.00562     0.00753     0.00939
NI1   4   0.466782   0.070196   0.207418    11.00000     0.04969     0.03150 =
      0.04613     0.00523     0.01049     0.01083
P1    3   0.260756   0.052182   0.145682    11.00000     0.05202     0.03263 =
      0.04669     0.00301     0.00544     0.00674
P2    3   0.511598   0.071620   0.314987    11.00000     0.05988     0.03471 =
      0.04873     0.00920     0.00944     0.01424
N1    2   0.252480   0.280840   0.170050    11.00000     0.05406     0.03383 =
      0.04637     0.00934     0.00339     0.01048
N2    2   0.383092   0.247061   0.375162    11.00000     0.06884     0.03913 =
      0.04790     0.00891     0.01808     0.01682
N3    2   0.627154   0.296576   0.217556    11.00000     0.04286     0.04105 =
      0.05737     0.00796     0.00754     0.00283
C1    1   0.294302   0.493800   0.270250    11.00000     0.06019     0.03196 =
      0.05115     0.00817     0.00330     0.01155
N4    2   0.116349   0.348687   0.082807    11.00000     0.08993     0.06176 =
      0.05398     0.01721     0.00370     0.01129
N5    2   0.245065   0.449442   0.315757    11.00000     0.06346     0.05479 =
      0.05511     0.00661     0.00637     0.01598
N6    2   0.328398   0.457480   0.380005    11.00000     0.06832     0.04273 =
      0.05325     0.00123     0.00546     0.01651
C2    1   0.193712   0.362757   0.149619    11.00000     0.05482     0.03722 =
      0.04741     0.01260     0.00869     0.01184
C3    1   0.570415  -0.143509   0.142324    11.00000     0.08338     0.03335 =
      0.06303     0.00686     0.02443     0.02876
N7    2   0.211631   0.472725   0.199359    11.00000     0.05913     0.04567 =
      0.05892     0.01140     0.00676     0.00666
C4    1   0.593386   0.187532   0.192583    11.00000     0.05197     0.04704 =
      0.05638     0.01068     0.01483     0.01086
C5    1   0.430715   0.551368   0.287982    11.00000     0.06529     0.03699 =
      0.06139     0.00982     0.00277     0.00424
C6    1   0.274029   0.402048   0.425526    11.00000     0.06114     0.05115 =
      0.04016     0.00250     0.00635     0.01906
C7    1   0.218915   0.171263   0.115266    11.00000     0.07144     0.03997 =
      0.05120     0.00469    -0.00486     0.01417
C8    1   0.152849   0.559173   0.183888    11.00000     0.08392     0.04343 =
      0.06447     0.01826     0.00476     0.01505
N8    2   0.530998  -0.061094   0.165556    11.00000     0.07207     0.05874 =
      0.06531     0.01833     0.01303     0.01062
C9    1   0.195233   0.453676   0.469648    11.00000     0.07537     0.08047 =
      0.04829     0.01044     0.02025     0.03234
C10   1   0.462174   0.514407   0.397254    11.00000     0.06557     0.04208 =
      0.05448     0.00479    -0.00150     0.00800
C11   1   0.734360   0.359234   0.197360    11.00000     0.05650     0.05047 =
      0.08702     0.01759     0.03092     0.00226
C12   1   0.060793   0.435863   0.068103    11.00000     0.09815     0.06017 =
      0.05043     0.02011    -0.00023     0.02027
C13   1   0.308996   0.294830   0.421405    11.00000     0.06325     0.04669 =
      0.04371     0.00712     0.01170     0.01099
C14   1   0.174068   0.297224   0.511993    11.00000     0.08146     0.07812 =
      0.06123     0.00844     0.01992     0.00453
C15   1   0.690135   0.134526   0.364730    11.00000     0.06447     0.05929 =
      0.05917     0.01771    -0.00118     0.01027
C16   1   0.105670   0.015614   0.176081    11.00000     0.04526     0.08502 =
      0.08946     0.02824     0.00893    -0.00085
C17   1   0.513303   0.560915   0.352741    11.00000     0.06116     0.04727 =
      0.06445     0.00715    -0.00056    -0.00491
C18   1   0.716000   0.263775   0.385835    11.00000     0.07073     0.06228 =
      0.07709     0.01331    -0.00159     0.00708
C19   1   0.416503   0.139269   0.381094    11.00000     0.07509     0.04630 =
      0.04985     0.01406     0.01616     0.02157
C20   1   0.077127   0.540396   0.116085    11.00000     0.10960     0.04720 =
      0.05862     0.01854    -0.00540     0.02378
C21   1   0.257979   0.242996   0.468109    11.00000     0.08306     0.06775 =
      0.04873     0.01614     0.02392     0.01252
C22   1   0.222789  -0.055637   0.055862    11.00000     0.08884     0.04783 =
      0.05677    -0.00342    -0.01144     0.01569
C23   1   0.141762   0.397729   0.513831    11.00000     0.07355     0.09366 =
      0.06620     0.01695     0.02945     0.03018
C24   1   0.495800  -0.072637   0.321844    11.00000     0.10064     0.04279 =
      0.08395     0.02683     0.01507     0.01601
C25   1   0.335814  -0.039521   0.019656    11.00000     0.10557     0.07864 =
      0.05795     0.00511     0.02586     0.02605
C26   1   0.356045  -0.143590   0.281775    11.00000     0.11117     0.05401 =
      0.09735     0.02217     0.01257    -0.01270
C27   1   0.605133  -0.253875   0.113964    11.00000     0.10041     0.04357 =
      0.08515     0.00688     0.02562     0.03992
PART 1
C28   1   1.073613   0.708033   0.366010    21.00000     0.08477
PART 0
C29   1   0.794915   0.091357   0.324121    11.00000     0.06812     0.12066 =
      0.11361     0.03894     0.01090     0.04381
C30   1   0.197123  -0.175526   0.063110    11.00000     0.11592     0.03799 =
      0.10328    -0.00798    -0.01137     0.00216
C31   1   0.858672   0.304829   0.189989    11.00000     0.07939     0.11655 =
      0.29084     0.06935     0.10842     0.03517
C32   1   0.102979   0.099942   0.244833    11.00000     0.09264     0.12936 =
      0.08713     0.01510     0.02701     0.03207
C33   1  -0.039303  -0.003015   0.124074    11.00000     0.04778     0.16871 =
      0.11887     0.02564     0.00910    -0.00495
PART 1
C34   1   1.059018   0.939162   0.406999    21.00000     0.09606
PART 0
C35   1   0.540840  -0.079199   0.397001    11.00000     0.16613     0.07894 =
      0.09743     0.05229     0.01099     0.01748
C36   1   0.771337   0.477606   0.250531    11.00000     0.17265     0.08446 =
      0.19864    -0.03967     0.11607    -0.06300
C37   1   0.636801  -0.255294   0.045572    11.00000     0.16450     0.10991 =
      0.09115     0.00087     0.05502     0.05030
C38   1   0.670336   0.367825   0.126059    11.00000     0.15840     0.10186 =
      0.09855     0.04341     0.03444    -0.00298
PART 1
C39   1   1.169096   0.904519   0.442675    21.00000     0.12262
C40   1   1.008134   0.751418   0.317350    21.00000     0.10255
PART 0
C41   1   0.482720  -0.345295   0.103901    11.00000     0.14081     0.04798 =
      0.27248     0.04317     0.10175     0.02641
PART 1
C42   1   1.003462   0.866223   0.338868    21.00000     0.11890
C43   1   1.161457   0.785375   0.426481    21.00000     0.12912
PART 0
C44   1   0.732971  -0.259047   0.166570    11.00000     0.17004     0.09951 =
      0.14831     0.03778    -0.00386     0.07316
PART 2
C28B  1   1.116992   0.725551   0.384475   -21.00000     0.11609
C34B  1   1.008051   0.943026   0.418304   -21.00000     0.49150
C39B  1   1.113586   0.904638   0.455166   -21.00000     0.09446
C40B  1   1.000446   0.742738   0.341952   -21.00000     0.08698
C42B  1   0.958316   0.848270   0.357109   -21.00000     0.10814
C43B  1   1.192560   0.818629   0.441223   -21.00000     0.13244
PART 0
HKLF 4
END
